 # Version information for this restart file 
 # current date 2020-06-17 20:22:00.788
 # current working dir /panfs/roc/scratch/singh891/dlt/cp2kmd
 # Program compiled at                              Tue May 28 11:01:45 CDT 2019
 # Program compiled on                                                    ln0003
 # Program compiled for                                       Linux-x86-64-intel
 # Source code revision number                                       git:7cd08c2
 &GLOBAL
   PRINT_LEVEL  LOW
   PROJECT_NAME chlorine
   RUN_TYPE  MD
 &END GLOBAL
 &MOTION
   &GEO_OPT
     OPTIMIZER  BFGS
     MAX_ITER  100
     MAX_DR     3.0000000000000001E-03
     MAX_FORCE     3.0000000000000001E-03
   &END GEO_OPT
   &MD
     ENSEMBLE  NVT
     STEPS  2
     TIMESTEP     9.9999999999999989E-01
     STEP_START_VAL  2
     TIME_START_VAL     1.9999999999999998E+00
     ECONS_START_VAL    -2.9859780888258592E+02
     TEMPERATURE     2.0000000000000003E+02
     &THERMOSTAT
       TYPE  NOSE
       REGION  MASSIVE
       &NOSE
         LENGTH  3
         YOSHIDA  3
         TIMECON     9.9999999999999989E+02
         MTS  2
         &COORD
               1.8902648871192682E-03   -1.1022963080161460E-03   -2.7032624461477742E-04    6.8708662509292420E-04 \
              -4.5488890722934609E-04   -5.1919533406291076E-04   -4.5201627977527057E-04   -7.6914988163414764E-04   -1.1330696386542989E-03 \
               2.4369555252093588E-03   -1.7086544126069002E-03    9.2547382874498324E-04    2.2717188946791409E-03   -8.5635756292448857E-04 \
               3.9531252043181015E-04    7.8581052401416568E-04   -8.1013370290957515E-04    1.7130268473433236E-03    3.6194447544941990E-05 \
              -7.9353860513467847E-04    1.0939380251381008E-03   -1.7866085680215114E-03   -1.3551260594824798E-03   -8.4963555451761938E-04 \
              -1.3543124995422933E-03    1.1916077792732212E-03   -1.0609775182456882E-03   -2.1363328150569784E-04    2.4778097483055006E-03 \
              -7.2034811961185947E-04   -4.8416377338406666E-04    2.0305305294994669E-03   -7.4738474402108554E-04    9.1058346429272511E-04 \
              -3.5473352753154344E-04    1.5640405226245082E-03    4.2980069731579985E-05    4.8763578948975161E-04   -1.3836304307070578E-03 \
              -8.2669234497572232E-04   -2.4144735925157748E-04    1.1602803118885359E-03   -1.3019876328480221E-04    2.1995262988671188E-03 \
               1.1508565897288279E-04    2.3801081030168170E-03    7.6552628136590159E-04    4.2287560218552607E-04   -7.6417499234899687E-05 \
              -1.7204187704620965E-03    1.4094262681785532E-03   -3.6397414332558305E-04    5.3815492563163590E-04    5.1464151132224695E-04 \
               7.1945057666790717E-04    6.7639537124447927E-05   -1.8999140014724615E-04   -7.7388830933591509E-04    1.1215882530385378E-03 \
               6.4855784576271780E-04    7.3736584410589404E-04   -1.0330373572811416E-04    2.5587525276689746E-03   -1.3398452766623129E-03 \
               6.2625295643217892E-05   -4.5631252902929076E-04    1.7968500262786813E-03    7.2283939362771297E-05   -6.2681883631955713E-04 \
              -3.3301054341524699E-03   -2.6526869744364102E-04    2.4708533076929436E-04   -1.2606598819670310E-03    1.0062995335542622E-03 \
              -7.0849294628549887E-04    1.8100736744350626E-03    1.2493596185816657E-03    1.6310643384039208E-03    6.5588641943001129E-04 \
              -1.7978088104519969E-03    6.3872075671024217E-04    4.4359163012002833E-04    1.1050203087421759E-04    8.8507655567969076E-05 \
              -1.9984645059711141E-03   -2.3659989126444456E-04    7.8834908285558680E-04   -1.5106927646085151E-03    8.5119388636392053E-05 \
              -4.1266999744667284E-04   -8.8890974035925631E-05    1.5784686419820025E-03    1.1704744709187421E-03   -8.0586598733050675E-04 \
               7.5519600663746756E-04    1.2741623106210282E-03    2.5000261729803937E-03    1.4027279534089985E-03    1.5061637051649844E-03 \
               4.3441249958441281E-04   -1.0989969726841432E-03   -8.3046555902822189E-04    2.3013893968243677E-03    8.9381708487593580E-04 \
              -7.5891823870036039E-04   -1.4836784534743002E-03   -1.2870630834604143E-03    2.4497162462071612E-04   -2.0591030228407367E-03 \
               1.0346183909745647E-03   -5.0605009085938346E-04   -5.4237934464103420E-04    2.1852412069033665E-03    6.8831463987552863E-04 \
               4.6301675279768168E-05   -3.3216866406718089E-04   -8.0878117117719101E-06   -1.7762277196589184E-03   -3.3514881995471265E-05 \
               2.1021206294414494E-04    2.4389764984002025E-04    1.8587241188741338E-04   -1.8886682648399464E-03   -6.0050456719809673E-04 \
              -1.2650933482339444E-03   -6.2935586281521062E-04   -6.5043360789986202E-04   -5.3814656274137507E-04   -4.4963057557421038E-04 \
               3.4191280820455682E-04   -7.3337638005099349E-04   -7.1603624233110256E-05   -1.9821503698617838E-03   -1.9697919275822183E-03 \
              -5.1012526796269874E-05   -3.0661102791023227E-04   -5.9961509336046211E-04   -1.1422317371195649E-03    7.5885319763385794E-04 \
               3.3620472970983541E-04   -2.4370476893238900E-03    5.9332794733829380E-04    1.7983690313888045E-03    3.2043721936305717E-05 \
              -1.8413472492440600E-03   -2.8285243622707220E-04   -4.2038622942798098E-04    7.9422341850476539E-04   -5.7432658083893750E-04 \
               4.2704212012268749E-04    7.1515030767253037E-04   -4.5284305805995505E-05   -2.3370169381633277E-05    1.3924607506334008E-03 \
              -1.2046695095663926E-03    1.4222401254606338E-03    6.5766010834231495E-04    2.5554070677273528E-03    1.2567265078097909E-03 \
               1.0189534768630980E-04    1.5961314836294819E-04    3.0439066462550505E-04   -1.8623578152858959E-03   -3.2029819097807114E-04 \
              -2.0203541118495325E-03   -9.8995392667621343E-04   -1.1191277796509778E-03   -2.2102700498536823E-04    1.5145679995189707E-03 \
              -2.2960203618781498E-04   -6.2304007895473115E-04    2.1876488889975600E-03   -5.3997376872208264E-04    1.6523792522741610E-03 \
               2.9156138304447263E-04   -1.2916102596789616E-04    1.7060073435384586E-03    3.9794772720202083E-04   -5.3059293611434140E-04 \
              -4.1825406266652991E-04
         &END COORD
         &VELOCITY
               2.2894907296784291E-05   -1.3336008156741501E-05   -3.2862791050008615E-06    8.2999824623995559E-06 \
              -5.5243862229360030E-06   -6.3023013519485000E-06   -5.4804847359994494E-06   -9.3306527988089262E-06   -1.3724426066336058E-05 \
               2.9492856930488389E-05   -2.0643891207668507E-05    1.1186524565967110E-05    2.7507729260692513E-05   -1.0348065668018867E-05 \
               4.7613195808820882E-06    9.4855422537313866E-06   -9.8101653819512360E-06    2.0697852260723764E-05    4.1572926609079395E-07 \
              -9.6163214295504590E-06    1.3210171835080116E-05   -2.1646586811991640E-05   -1.6401296467464620E-05   -1.0288929223196405E-05 \
              -1.6389511149647848E-05    1.4406361494709052E-05   -1.2847513846087182E-05   -2.5784538844194176E-06    2.9954549278623204E-05 \
              -8.6992664577054578E-06   -5.8665570856694058E-06    2.4544497966917315E-05   -9.0384512796410251E-06    1.1002369719607196E-05 \
              -4.3061169663179136E-06    1.8892739517808635E-05    5.1184810621964711E-07    5.8775723858470621E-06   -1.6756963958848080E-05 \
              -9.9830854597435798E-06   -2.9385283305104080E-06    1.4009084476235837E-05   -1.5656680854023452E-06    2.6576379365795577E-05 \
               1.3969427649360365E-06    2.8757088851081270E-05    9.2666858906270593E-06    5.0937929078901343E-06   -9.3766527360683331E-07 \
              -2.0816959476387066E-05    1.7039910928651605E-05   -4.3706496166770729E-06    6.4836108625372644E-06    6.2018494342346705E-06 \
               8.7305741883663662E-06    7.9708358632517735E-07   -2.3219977435819488E-06   -9.3510872844377180E-06    1.3539999927588489E-05 \
               7.8273410219863741E-06    8.9290420439295650E-06   -1.2686906513445562E-06    3.0922508283242935E-05   -1.6193197137741084E-05 \
               7.4425047181239282E-07   -5.5430015211597953E-06    2.1724523245159075E-05    8.6983715878461766E-07   -7.6051686459642692E-06 \
              -4.0268605492347235E-05   -3.1650167986588785E-06    2.9645870533453001E-06   -1.5257125136779361E-05    1.2160350104551023E-05 \
              -8.5868810616877430E-06    2.1856223095894706E-05    1.5093569260508360E-05    1.9712023112781996E-05    7.9173228125951928E-06 \
              -2.1758104428176549E-05    7.7203233621443448E-06    5.3637427446331360E-06    1.3134007246622035E-06    1.0463330595564937E-06 \
              -2.4194173041142005E-05   -2.8604331801992969E-06    9.5107757922806465E-06   -1.8193261059046630E-05    1.0192521405303084E-06 \
              -5.0151502609029255E-06   -1.0705254141497754E-06    1.9055360939354024E-05    1.4147071363119788E-05   -9.7599847874713549E-06 \
               9.1075891167680680E-06    1.5389509664924394E-05    3.0302347620252379E-05    1.6966070320604174E-05    1.8203889211330712E-05 \
               5.2331043953413033E-06   -1.3320309645629840E-05   -1.0060875202211873E-05    2.7818604453567938E-05    1.0822134284585253E-05 \
              -9.1980312759726131E-06   -1.7973954820051846E-05   -1.5575242210612914E-05    2.9486225170754235E-06   -2.4912113590319416E-05 \
               1.2517736644650846E-05   -6.1380972695264427E-06   -6.5099249498821288E-06    2.6397715702974622E-05    8.3294328113220563E-06 \
               5.4413780932150464E-07   -4.0415815855317630E-06   -1.2133633632184835E-07   -2.1503711436954471E-05   -4.1039839669085185E-07 \
               2.5182113277069273E-06    2.9763986841569797E-06    2.2263091724135503E-06   -2.2866331578189175E-05   -7.2699091559763655E-06 \
              -1.5327399612991593E-05   -7.6261943578401937E-06   -7.8877692854340921E-06   -6.5316647295118204E-06   -5.4604551704515307E-06 \
               4.1182891996502379E-06   -8.8935673755272092E-06   -8.8693500197069494E-07   -2.4009457956708437E-05   -2.3824507023544187E-05 \
              -6.1769150673882875E-07   -3.7169503585038240E-06   -7.2797665004650628E-06   -1.3836641310907010E-05    9.2415333453971929E-06 \
               4.0504604290122955E-06   -2.9498189360289697E-05    7.1549929476616471E-06    2.1727821978992301E-05    3.8290548745572931E-07 \
              -2.2277231353609705E-05   -3.4253383586185704E-06   -5.1080329247879647E-06    9.6157817445841073E-06   -6.9650362143742163E-06 \
               5.1426369123837082E-06    8.7112976736630170E-06   -5.6877618055798354E-07   -3.0682479988909876E-07    1.6834033688288248E-05 \
              -1.4571889379819613E-05    1.7185759626595887E-05    7.9222208511548635E-06    3.0865171885786552E-05    1.5214645446884019E-05 \
               1.2447801881200085E-06    1.9060112969279447E-06    3.6573929656007523E-06   -2.2550125438764460E-05   -3.8809370456995154E-06 \
              -2.4458582168240890E-05   -1.2003393594415754E-05   -1.3554955400791911E-05   -2.6898014466658988E-06    1.8327989184940172E-05 \
              -2.7880823334930246E-06   -7.5591786032126247E-06    2.6444229594695648E-05   -6.5205382323853393E-06    1.9962143900922146E-05 \
               3.6086991648586578E-06   -1.5844562783038015E-06    2.0609085129483654E-05    4.8014959789517052E-06   -6.4417931559922683E-06 \
              -5.0810230078277293E-06
         &END VELOCITY
         &MASS
               1.0824866155047130E+06    1.0824866155047130E+06    1.0824866155047130E+06    1.0824866155047130E+06 \
               1.0824866155047130E+06    1.0824866155047130E+06    1.0824866155047130E+06    1.0824866155047130E+06    1.0824866155047130E+06 \
               1.0824866155047130E+06    1.0824866155047130E+06    1.0824866155047130E+06    1.0824866155047130E+06    1.0824866155047130E+06 \
               1.0824866155047130E+06    1.0824866155047130E+06    1.0824866155047130E+06    1.0824866155047130E+06    1.0824866155047130E+06 \
               1.0824866155047130E+06    1.0824866155047130E+06    1.0824866155047130E+06    1.0824866155047130E+06    1.0824866155047130E+06 \
               1.0824866155047130E+06    1.0824866155047130E+06    1.0824866155047130E+06    1.0824866155047130E+06    1.0824866155047130E+06 \
               1.0824866155047130E+06    1.0824866155047130E+06    1.0824866155047130E+06    1.0824866155047130E+06    1.0824866155047130E+06 \
               1.0824866155047130E+06    1.0824866155047130E+06    1.0824866155047130E+06    1.0824866155047130E+06    1.0824866155047130E+06 \
               1.0824866155047130E+06    1.0824866155047130E+06    1.0824866155047130E+06    1.0824866155047130E+06    1.0824866155047130E+06 \
               1.0824866155047130E+06    1.0824866155047130E+06    1.0824866155047130E+06    1.0824866155047130E+06    1.0824866155047130E+06 \
               1.0824866155047130E+06    1.0824866155047130E+06    1.0824866155047130E+06    1.0824866155047130E+06    1.0824866155047130E+06 \
               1.0824866155047130E+06    1.0824866155047130E+06    1.0824866155047130E+06    1.0824866155047130E+06    1.0824866155047130E+06 \
               1.0824866155047130E+06    1.0824866155047130E+06    1.0824866155047130E+06    1.0824866155047130E+06    1.0824866155047130E+06 \
               1.0824866155047130E+06    1.0824866155047130E+06    1.0824866155047130E+06    1.0824866155047130E+06    1.0824866155047130E+06 \
               1.0824866155047130E+06    1.0824866155047130E+06    1.0824866155047130E+06    1.0824866155047130E+06    1.0824866155047130E+06 \
               1.0824866155047130E+06    1.0824866155047130E+06    1.0824866155047130E+06    1.0824866155047130E+06    1.0824866155047130E+06 \
               1.0824866155047130E+06    1.0824866155047130E+06    1.0824866155047130E+06    1.0824866155047130E+06    1.0824866155047130E+06 \
               1.0824866155047130E+06    1.0824866155047130E+06    1.0824866155047130E+06    1.0824866155047130E+06    1.0824866155047130E+06 \
               1.0824866155047130E+06    1.0824866155047130E+06    1.0824866155047130E+06    1.0824866155047130E+06    1.0824866155047130E+06 \
               1.0824866155047130E+06    1.0824866155047130E+06    1.0824866155047130E+06    1.0824866155047130E+06    1.0824866155047130E+06 \
               1.0824866155047130E+06    1.0824866155047130E+06    1.0824866155047130E+06    1.0824866155047130E+06    1.0824866155047130E+06 \
               1.0824866155047130E+06    1.0824866155047130E+06    1.0824866155047130E+06    1.0824866155047130E+06    1.0824866155047130E+06 \
               1.0824866155047130E+06    1.0824866155047130E+06    1.0824866155047130E+06    1.0824866155047130E+06    1.0824866155047130E+06 \
               1.0824866155047130E+06    1.0824866155047130E+06    1.0824866155047130E+06    1.0824866155047130E+06    1.0824866155047130E+06 \
               1.0824866155047130E+06    1.0824866155047130E+06    1.0824866155047130E+06    1.0824866155047130E+06    1.0824866155047130E+06 \
               1.0824866155047130E+06    1.0824866155047130E+06    1.0824866155047130E+06    1.0824866155047130E+06    1.0824866155047130E+06 \
               1.0824866155047130E+06    1.0824866155047130E+06    1.0824866155047130E+06    1.0824866155047130E+06    1.0824866155047130E+06 \
               1.0824866155047130E+06    1.0824866155047130E+06    1.0824866155047130E+06    1.0824866155047130E+06    1.0824866155047130E+06 \
               1.0824866155047130E+06    1.0824866155047130E+06    1.0824866155047130E+06    1.0824866155047130E+06    1.0824866155047130E+06 \
               1.0824866155047130E+06    1.0824866155047130E+06    1.0824866155047130E+06    1.0824866155047130E+06    1.0824866155047130E+06 \
               1.0824866155047130E+06    1.0824866155047130E+06    1.0824866155047130E+06    1.0824866155047130E+06    1.0824866155047130E+06 \
               1.0824866155047130E+06    1.0824866155047130E+06    1.0824866155047130E+06    1.0824866155047130E+06    1.0824866155047130E+06 \
               1.0824866155047130E+06    1.0824866155047130E+06    1.0824866155047130E+06    1.0824866155047130E+06    1.0824866155047130E+06 \
               1.0824866155047130E+06    1.0824866155047130E+06    1.0824866155047130E+06    1.0824866155047130E+06    1.0824866155047130E+06 \
               1.0824866155047130E+06    1.0824866155047130E+06    1.0824866155047130E+06    1.0824866155047130E+06    1.0824866155047130E+06 \
               1.0824866155047130E+06    1.0824866155047130E+06    1.0824866155047130E+06    1.0824866155047130E+06    1.0824866155047130E+06 \
               1.0824866155047130E+06
         &END MASS
         &FORCE
               8.6775121553347510E-10   -6.0923358372704133E-11   -4.0725102494437482E-10   -3.3765919557264890E-10 \
              -5.1621042962491048E-10   -5.5458129536088550E-10   -4.0568403256064393E-10   -5.5506442555952772E-10   -4.9803905684912979E-10 \
              -9.3947730042214236E-11    2.8472847142120643E-10   -1.5892989430699753E-10    6.9234077512916834E-10    1.7157503057850838E-10 \
              -4.7801767543141983E-10   -5.0298694953398981E-10   -4.9512462665372716E-10   -4.8886079367981626E-10   -5.2656808876366881E-10 \
              -5.8492730767836621E-10   -4.9262650066461926E-10   -5.7758778602228349E-10   -1.1652541789196022E-10   -3.1609761268738328E-10 \
              -4.7718112899990997E-10   -3.1648406277661952E-10   -3.7755688698481499E-10    6.3425828346478613E-11   -5.7845171406697314E-10 \
               3.1217488398441527E-10   -4.1580554386461473E-10   -5.5068364646163270E-10    1.7332241946957584E-11   -3.0173201639892468E-10 \
              -4.6404799905412135E-10   -5.6655749517343968E-10   -2.5882724418908316E-10   -5.8483815001720996E-10   -5.5055428135017875E-10 \
               6.1065016465988822E-10   -4.8543814320450702E-10   -5.7646518975183832E-10   -5.8635274082007878E-11   -5.8264882194740316E-10 \
               1.2120380169363424E-10   -3.6633731647433238E-10    2.4187002068793205E-10   -4.9922867110550405E-10   -3.3634843355840533E-10 \
              -5.8422092233572255E-10   -1.5175433665950936E-10    8.7658565998775522E-10   -5.6599756042929123E-10   -5.4306292868423948E-10 \
               1.2543746000069765E-09   -5.0887721284248156E-10   -5.8446479625746159E-10    2.7420443688743260E-10   -4.9765730509987793E-10 \
              -4.0176854046195443E-10    1.9517982740583970E-10   -5.0537234667878878E-10   -5.8349056253224163E-10    2.4348575117201287E-10 \
              -3.2288050495930463E-10   -5.8454622973625767E-10   -1.4125861230608525E-10   -1.1314522827159365E-10   -5.8434352181824818E-10 \
               2.0801442515909677E-10    1.0364604497972472E-09   -5.7508280716525778E-10   -4.3121389048092091E-10   -3.5232027106170601E-10 \
              -4.3722602383579661E-10   -5.2940687112124182E-10   -1.0740565048352954E-10   -3.5728430547928781E-10   -5.2619376699471331E-10 \
              -5.2241613798221037E-10   -1.1168503019361471E-10   -3.3487702167250618E-11   -5.5633040227044607E-10   -5.8337511703750752E-10 \
              -5.0888077895811501E-10    2.5787064367186643E-13   -5.7691806052266560E-10    1.7135232952367358E-09   -2.5410539053842815E-10 \
              -5.8406126357507500E-10    2.6820685512180053E-10   -5.8395411383871014E-10   -2.2199335797199160E-10   -5.5708382550483389E-10 \
              -4.8984283544937843E-10   -5.0215195898117851E-10    2.2037656564834011E-09    3.3313213279756422E-10   -2.9725259637736487E-10 \
              -5.7361796150022826E-10   -5.5771475688851022E-10   -4.0766948944559130E-10   -4.2096438100670272E-11    1.8877461524301922E-10 \
              -4.6798154802745501E-10   -4.4970244007841881E-10   -2.6203708662778562E-10   -3.4251196858179246E-10   -5.3543831442184553E-10 \
               3.5513265035926787E-11   -4.2840640779621606E-10    1.0272354347116379E-09   -5.4272101564795284E-10    1.1173925583402232E-10 \
              -3.8587077353833709E-10   -5.8480405254551737E-10   -5.6876575678854119E-10   -5.2911660989575614E-10   -1.2269053293724417E-10 \
              -5.8493171165704422E-10    6.4487761716864441E-10   -5.7624118937399922E-10   -5.8014368596987795E-10   -3.8189327420376747E-11 \
              -5.3224855936490158E-10   -3.5017095960471580E-10   -5.2075525992823851E-10   -5.2288323420081324E-10   -5.4243749436230191E-10 \
              -4.4640890029284466E-10   -5.6813983256909491E-10   -5.0600459783800871E-10   -2.7049193472622204E-10   -8.6460671261005809E-12 \
              -1.7493003586144396E-11   -2.2328136546489524E-10   -5.7128441853346901E-10   -5.3210513819975730E-10    1.6592563094476886E-09 \
              -4.9969419992696249E-10   -5.6869390881405624E-10   -3.0648156708532119E-10   -5.3390621441996282E-10   -1.1300189055026970E-10 \
              -1.1151700863426410E-10   -8.8825101718799364E-11   -5.7336719563002684E-10    5.5891112263148121E-11   -4.9263687994157378E-10 \
              -5.3658840903350631E-10    1.6222914560780965E-09   -5.0921343134188395E-10   -5.8477663215748050E-10   -4.3022105579017517E-10 \
              -3.0171544828262702E-10   -3.7276017840335100E-10   -4.9982835136926362E-10   -5.2233855528657781E-10    3.6755869703809781E-10 \
               1.4402210898286349E-10   -5.8355066078431462E-10   -5.8146725943703375E-10   -5.4145547038758591E-10   -7.6591981197038587E-11 \
              -5.7003846614836773E-10   -5.8113652807132363E-10   -4.4101868071858949E-10   -4.0136332258359287E-10    1.5686995141231627E-10 \
              -2.4918495093776674E-10   -5.7732673540271468E-10   -5.0594279608579031E-10    1.1419714035592647E-10   -5.4258271966105170E-10 \
               1.9983373162468789E-09   -5.7207742883859911E-10   -5.8258963680319436E-10   -2.9871624693365390E-10   -5.6204577486516122E-10 \
              -5.4360343943646179E-10
         &END FORCE
       &END NOSE
     &END THERMOSTAT
     &AVERAGES  T
       &RESTART_AVERAGES
         ITIMES_START  1
         AVECPU     2.2200868606567383E+01
         AVEHUGONIOT     0.0000000000000000E+00
         AVETEMP_BARO     0.0000000000000000E+00
         AVEPOT    -2.9909624178744832E+02
         AVEKIN     1.9661872846272965E-02
         AVETEMP     2.0695736583814335E+02
         AVEKIN_QM     0.0000000000000000E+00
         AVETEMP_QM     0.0000000000000000E+00
         AVEVOL     8.9820333300927869E+03
         AVECELL_A     2.0786987461742072E+01
         AVECELL_B     2.0786987461742072E+01
         AVECELL_C     2.0786987461742072E+01
         AVEALPHA     9.0000000000000000E+01
         AVEBETA     9.0000000000000000E+01
         AVEGAMMA     9.0000000000000000E+01
         AVE_ECONS    -3.9717042715587768E+03
         AVE_PRESS     2.0944574595100341E+04
         AVE_PXX     2.8167546846734225E+04
       &END RESTART_AVERAGES
     &END AVERAGES
     &PRINT
       &ENERGY  SILENT
         &EACH
         &END EACH
       &END ENERGY
       &PROGRAM_RUN_INFO  SILENT
         &EACH
         &END EACH
       &END PROGRAM_RUN_INFO
     &END PRINT
   &END MD
   &CONSTRAINT
     &FIXED_ATOMS
     &END FIXED_ATOMS
   &END CONSTRAINT
   &PRINT
     &VELOCITIES  OFF
       &EACH
       &END EACH
     &END VELOCITIES
     &FORCES  OFF
       &EACH
       &END EACH
     &END FORCES
     &STRESS  OFF
       &EACH
       &END EACH
     &END STRESS
     &RESTART  ON
       BACKUP_COPIES  3
       &EACH
         MD  1
       &END EACH
     &END RESTART
     &RESTART_HISTORY  ON
       &EACH
         MD  500
       &END EACH
     &END RESTART_HISTORY
   &END PRINT
 &END MOTION
 &FORCE_EVAL
   METHOD  QS
   STRESS_TENSOR  ANALYTICAL
   &DFT
     BASIS_SET_FILE_NAME /home/siepmann/singh891/cp2k-6.1.0/data/BASIS_MOLOPT
     POTENTIAL_FILE_NAME /home/siepmann/singh891/cp2k-6.1.0/data/GTH_POTENTIALS
     MULTIPLICITY  1
     CHARGE  0
     &SCF
       MAX_SCF  2
       EPS_SCF     9.9999999999999995E-07
       SCF_GUESS  ATOMIC
       &OT  T
         MINIMIZER  DIIS
         PRECONDITIONER  FULL_SINGLE_INVERSE
       &END OT
       &OUTER_SCF  T
         EPS_SCF     9.9999999999999995E-07
         MAX_SCF  2
       &END OUTER_SCF
       &PRINT
         DM_RESTART_WRITE  T
         &RESTART  OFF
         &END RESTART
       &END PRINT
     &END SCF
     &QS
       EPS_DEFAULT     1.0000000000000000E-08
       EXTRAPOLATION  ASPC
       METHOD  GPW
     &END QS
     &MGRID
       NGRIDS  4
       CUTOFF     4.0000000000000000E+02
       REL_CUTOFF     5.0000000000000000E+01
     &END MGRID
     &XC
       DENSITY_CUTOFF     1.0000000000000000E-10
       GRADIENT_CUTOFF     1.0000000000000000E-10
       TAU_CUTOFF     1.0000000000000000E-10
       &XC_FUNCTIONAL  NO_SHORTCUT
         &PBE  T
         &END PBE
       &END XC_FUNCTIONAL
       &VDW_POTENTIAL
         POTENTIAL_TYPE  PAIR_POTENTIAL
         &PAIR_POTENTIAL
           R_CUTOFF     1.1000000000000000E+01
           TYPE  DFTD3
           PARAMETER_FILE_NAME dftd3.dat
           REFERENCE_FUNCTIONAL PBE
         &END PAIR_POTENTIAL
       &END VDW_POTENTIAL
     &END XC
     &POISSON
       PERIODIC  XYZ
       &EWALD
       &END EWALD
     &END POISSON
     &PRINT
       &E_DENSITY_CUBE  OFF
       &END E_DENSITY_CUBE
     &END PRINT
   &END DFT
   &SUBSYS
     &CELL
       A     1.1000000000000000E+01    0.0000000000000000E+00    0.0000000000000000E+00
       B     0.0000000000000000E+00    1.1000000000000000E+01    0.0000000000000000E+00
       C     0.0000000000000000E+00    0.0000000000000000E+00    1.1000000000000000E+01
       MULTIPLE_UNIT_CELL  1 1 1
     &END CELL
     &COORD
Cl    5.8644678802949217E+00    2.3786214346834234E+00    6.5289289830922330E+00
Cl    7.5869580874692009E+00    1.5499343441431279E+00    5.8731628046113151E+00
Cl    2.7887462609971485E+00    7.0179071447981496E+00   -3.0776668380334323E-03
Cl    3.2709354246418472E+00    8.9643540878595491E+00    2.2291607588747490E-02
Cl    7.3378363335641605E+00    3.3726604382311236E+00    7.8329872640485156E+00
Cl    8.9869415752071866E+00    3.4295789753848083E+00    8.9958510208424070E+00
Cl    1.1021438679411273E+00    3.9945034196550226E+00    2.7958685496899336E+00
Cl    9.8279633510253606E-01    4.1610098554865198E+00    8.0105373029709437E-01
Cl    8.9994378748588684E+00    8.9994578043626881E+00    4.3979717071492432E+00
Cl    8.9987029326910761E+00    8.9997182413893562E+00    6.3960799177312895E+00
Cl    2.2415787304218231E+00    1.8851955518058225E+00    3.0950850071154004E+00
Cl    1.2303778160858210E+00    8.5562381213925154E-01    4.4865723067543035E+00
Cl    8.8573120407134986E-01    8.8970682899995044E+00    8.0047833989876178E+00
Cl    2.8691239491973231E+00    8.8609317791977311E+00    7.7185679418369242E+00
Cl    8.0955145760243710E+00    4.9276894013520085E+00    1.1589257232276986E+00
Cl    6.1898937990551470E+00    4.6709657685847983E+00    1.7442134013876298E+00
Cl    2.8876108039632431E+00    5.2932672731346120E+00    3.6677775138969508E+00
Cl    4.8703376176382411E+00    5.5022880813441013E+00    3.3987767645233768E+00
Cl    4.9792881094860579E+00    1.4257721077462105E-02    8.4840682489366859E-01
Cl    6.9125782445346564E+00    2.5977878958702957E-02    3.1175848164216546E-01
     &END COORD
     &VELOCITY
          -1.5599666463889537E-04    6.4378447972285744E-05    5.4819546037767646E-05
           9.0701164007878416E-05   -1.4627669267200675E-04   -3.7086101362890443E-05
          -3.1311335239712583E-05   -1.1217412742917333E-05   -4.2516127120766602E-05
           1.0422416069423873E-04   -5.3250816040938992E-05    6.8893812320382190E-05
          -7.3925661494843366E-05    1.4152233041858924E-04   -9.3905151501645826E-05
           6.0532899945400600E-05   -6.4548737831779173E-05    1.5647023516939538E-04
          -1.7553011428531108E-04    1.1997155381756700E-04    1.1432203583744440E-04
           1.1780764873187992E-04    8.6222118216939536E-05    1.1525842586588165E-04
           5.0769703499051515E-05    3.0542604632745625E-05   -3.1411296162738154E-05
           9.6121767053614239E-05    3.5730358124656590E-05   -1.9621790591822216E-04
           1.1955214541186570E-04    2.1662581612680763E-05    2.1613172986151454E-04
          -1.3868096028942595E-05   -9.5368755664507800E-05   -4.7622299561597044E-05
           2.8841381229592945E-05   -1.6433589696022619E-04    5.7767210545678681E-05
          -3.0622091913890574E-05    1.4353352482991951E-04   -9.5711247259423526E-05
          -3.2829306937337919E-05   -4.8198024078181392E-05   -7.2592164012632278E-05
          -7.7848503753004010E-05   -1.9388786920930556E-04   -6.8314005777706950E-05
          -8.9064130678687109E-05   -1.0361694233100737E-04    1.9228456044589399E-04
          -5.0933216753832285E-05    3.7792655101149813E-05   -1.1051084420201656E-04
           2.7037735752279555E-05   -8.1479846626692215E-06   -1.1148024662194401E-04
           3.6412485448552629E-05    2.0801933200141628E-04   -6.9259446216293294E-05
     &END VELOCITY
     &KIND Cl
       BASIS_SET DZVP-MOLOPT-SR-GTH
       POTENTIAL GTH-PBE
       &POTENTIAL
 2 5
  0.4100000000000000E+00 1 -0.6392081810000000E+01
 2
  0.3395386400000000E+00 2  0.1521898983000000E+02 -0.4934523210000000E+01
  0.6370442080000000E+01
  0.3784741600000000E+00 1  0.4338775270000000E+01
         # Potential name:  GTH-PBE  for symbol:  CL
         # Potential read from the potential filename: /home/siepmann/singh891/cp2k-6.1.0/data/GTH_POTENTIALS
       &END POTENTIAL
     &END KIND
     &TOPOLOGY
       NUMBER_OF_ATOMS  20
       MULTIPLE_UNIT_CELL  1 1 1
     &END TOPOLOGY
   &END SUBSYS
 &END FORCE_EVAL
