 # Version information for this restart file 
 # current date 2020-06-17 20:21:14.643
 # current working dir /panfs/roc/scratch/singh891/dlt/cp2kmd
 # Program compiled at                              Tue May 28 11:01:45 CDT 2019
 # Program compiled on                                                    ln0003
 # Program compiled for                                       Linux-x86-64-intel
 # Source code revision number                                       git:7cd08c2
 &GLOBAL
   PRINT_LEVEL  LOW
   PROJECT_NAME chlorinepre
   RUN_TYPE  MD
 &END GLOBAL
 &MOTION
   &GEO_OPT
     OPTIMIZER  BFGS
     MAX_ITER  100
     MAX_DR     3.0000000000000001E-03
     MAX_FORCE     3.0000000000000001E-03
   &END GEO_OPT
   &MD
     ENSEMBLE  NVT
     STEPS  1
     TIMESTEP     1.9999999999999998E-01
     STEP_START_VAL  1
     TIME_START_VAL     1.9999999999999998E-01
     ECONS_START_VAL    -2.9910361403724318E+02
     TEMPERATURE     2.0000000000000003E+02
     &THERMOSTAT
       TYPE  NOSE
       REGION  MASSIVE
       &NOSE
         LENGTH  3
         YOSHIDA  3
         TIMECON     9.9999999999999989E+02
         MTS  2
         &COORD
               1.8891576215279016E-04   -1.1019692811840015E-04   -2.6907292445197072E-05    6.8772340435716765E-05 \
              -4.5319541064705522E-05   -5.1748824477609252E-05   -4.5142752607068926E-05   -7.6705002069666045E-05   -1.1315354247077539E-04 \
               2.4358655827615456E-04   -1.7102378429476132E-04    9.2595933160591147E-05    2.2700004182908635E-04   -8.5703108745392292E-05 \
               3.9678235951994083E-05    7.8726569092150294E-05   -8.0923633209713041E-05    1.7145316986876715E-04    3.7873853374433972E-06 \
              -7.9212980257507991E-05    1.0954549563621335E-04   -1.7837645372008787E-04   -1.3542432393116830E-04   -8.4866160115935996E-05 \
              -1.3535892715390240E-04    1.1920138772202575E-04   -1.0598166152317882E-04   -2.1396880163597496E-05    2.4787855783971180E-04 \
              -7.2131155845874432E-05   -4.8349193401381370E-05    2.0315421172494675E-04   -7.4744066634466866E-05    9.1136910033347957E-05 \
              -3.5355634790827314E-05    1.5657840076300001E-04    4.3384248170830858E-06    4.8913116846344413E-05   -1.3819376304300866E-04 \
              -8.2715961410471399E-05   -2.4008100300084008E-05    1.1620541660051806E-04   -1.3160285089564152E-05    2.2014324659837601E-04 \
               1.1470747810025543E-05    2.3824834829773984E-04    7.6492144768986077E-05    4.2441201148916977E-05   -7.5517042528835331E-06 \
              -1.7197125149281110E-04    1.4098946637531966E-04   -3.6572066002632038E-05    5.4001997836924077E-05    5.1631091833064577E-05 \
               7.1890330351252827E-05    6.9201095059751646E-06   -1.8819348747813289E-05   -7.7402499627190452E-05    1.1234463469167254E-04 \
               6.4979120753557140E-05    7.3651419870751899E-05   -1.0186670780871918E-05    2.5605477646692794E-04   -1.3407577420567016E-04 \
               6.3604243828928844E-06   -4.5451431039956768E-05    1.7974853413577858E-04    7.2610368569388881E-06   -6.2502119387163640E-05 \
              -3.3311725872204386E-04   -2.6848922926639014E-05    2.4885343610551297E-05   -1.2599024861451166E-04    1.0070638977640234E-04 \
              -7.0714883878824340E-05    1.8127243225373368E-04    1.2506014312796626E-04    1.6321615192971451E-04    6.5707579171556213E-05 \
              -1.7967193201933869E-04    6.3906682654841273E-05    4.4365695374244161E-05    1.1221792173606434E-05    9.0302109745524677E-06 \
              -1.9966866695749066E-04   -2.3668018108749829E-05    7.9012388693077258E-05   -1.5175254510314923E-04    8.5874189411376989E-06 \
              -4.1087327513951724E-05   -8.8652623809421352E-06    1.5810970374507654E-04    1.1711521603810115E-04   -8.0544481971760049E-05 \
               7.5713744355199560E-05    1.2757052747940621E-04    2.4952724873807868E-04    1.4026694672700441E-04    1.5070782882321753E-04 \
               4.3597237552513328E-05   -1.0968717878312529E-04   -8.2920844410095285E-05    2.3026545439482174E-04    8.9292799700035655E-05 \
              -7.5747753611293749E-05   -1.4815406800025192E-04   -1.2863948398113924E-04    2.4602641444269502E-05   -2.0586393549342887E-04 \
               1.0342753708635729E-04   -5.0473169188775975E-05   -5.4612850112649327E-05    2.1875852622745112E-04    6.8796439712378132E-05 \
               4.7490590167044853E-06   -3.3036851361023028E-05   -6.3373039473906494E-07   -1.7748299748060451E-04   -3.3137052270884829E-06 \
               2.1201156082904203E-05    2.4188212517632215E-05    1.8748743634198562E-05   -1.8868838921518309E-04   -5.9987505862939814E-05 \
              -1.2630975933792236E-04   -6.2827539754499681E-05   -6.4921695102793423E-05   -5.3642801601425021E-05   -4.4796065017956279E-05 \
               3.4314712606295597E-05   -7.3160564076001292E-05   -7.0045306743996459E-06   -1.9792913382901800E-04   -1.9697132787863315E-04 \
              -5.0958522694252971E-06   -3.0597731689583547E-05   -5.9754959076618854E-05   -1.1405931996258861E-04    7.5456214240107660E-05 \
               3.3737752373823364E-05   -2.4352986597315769E-04    5.9505331010795204E-05    1.8000363803845538E-04    3.2387562763662287E-06 \
              -1.8408827699819438E-04   -2.8252450843621997E-05   -4.1862220720169220E-05    7.9295353326709028E-05   -5.7292066249723568E-05 \
               4.2869390214398079E-05    7.1100765983315181E-05   -4.3713145278972601E-06   -2.1571073597642073E-06    1.3929234872166711E-04 \
              -1.2045133738899244E-04    1.4233871228840327E-04    6.6010520214275438E-05    2.5584572885070384E-04    1.2555858801778486E-04 \
               1.0030989225856330E-05    1.6143048131554309E-05    3.0617912242030080E-05   -1.8604592409457202E-04   -3.1976701475394725E-05 \
              -2.0186002325313845E-04   -9.8771796828460548E-05   -1.1176571042700135E-04   -2.1979016771328352E-05    1.5136325166527391E-04 \
              -2.2876972688635911E-05   -6.2126375081254868E-05    2.1887583362459025E-04   -5.4072979434892748E-05    1.6540479362612035E-04 \
               2.8545414406985566E-05   -1.2749761900026460E-05    1.7077998932142261E-04    3.9885332956103364E-05   -5.2876464538385840E-05 \
              -4.1658049241229150E-05
         &END COORD
         &VELOCITY
               2.2847761306988672E-05   -1.3328121170611497E-05   -3.2559659316239042E-06    8.3166874762967489E-06 \
              -5.4834111304202048E-06   -6.2610156708608982E-06   -5.4601987492243793E-06   -9.2798469518012426E-06   -1.3687329533589069E-05 \
               2.9461053209293557E-05   -2.0682210725884085E-05    1.1198292322288122E-05    2.7455679820790614E-05   -1.0364392437227465E-05 \
               4.7968784112811348E-06    9.5194919683406976E-06   -9.7884505056272828E-06    2.0734246424166044E-05    4.5574420428199292E-07 \
              -9.5822450900189255E-06    1.3246854731460608E-05   -2.1577342077347097E-05   -1.6379978328910993E-05   -1.0265381015175284E-05 \
              -1.6371825895654183E-05    1.4416171528832188E-05   -1.2819428657405238E-05   -2.5874850634785248E-06    2.9978167878605016E-05 \
              -8.7225494740990457E-06   -5.8480759545842780E-06    2.4568967640197284E-05   -9.0397857577390931E-06    1.1021456996295652E-05 \
              -4.2776413837432428E-06    1.8934908699459278E-05    5.2428114651427977E-07    5.9137495710276084E-06   -1.6716010610253236E-05 \
              -1.0004042801849446E-05   -2.9054772768679633E-06    1.4051989029322827E-05   -1.5892295557585870E-06    2.6622491298509891E-05 \
               1.3878321950354687E-06    2.8811290252563476E-05    9.2520995810388923E-06    5.1309527745921511E-06   -9.1445142400017128E-07 \
              -2.0799877456062841E-05    1.7051230099824109E-05   -4.4216986338159341E-06    6.5287227233450891E-06    6.2422393600434754E-06 \
               8.6938274006153338E-06    8.3484871798196809E-07   -2.2785073793334414E-06   -9.3614890976600850E-06    1.3584935826449613E-05 \
               7.8571930968205728E-06    8.9084756686420617E-06   -1.2339519357391944E-06    3.0965931673455120E-05   -1.6214442680374021E-05 \
               7.6794214197528778E-07   -5.4995041486998972E-06    2.1738541120796230E-05    8.7774273560553061E-07   -7.5616855450823023E-06 \
              -4.0286110832349714E-05   -3.2428903156057641E-06    3.0073630500983645E-06   -1.5238807318636188E-05    1.2178827122096767E-05 \
              -8.5543618374673421E-06    2.1920285371982037E-05    1.5123634728608529E-05    1.9738576419136316E-05    7.9452688287499994E-06 \
              -2.1731744490724988E-05    7.7286770157449853E-06    5.3656920580411573E-06    1.3549048829140710E-06    1.0897405117929927E-06 \
              -2.4151156810156582E-05   -2.8624046751344364E-06    9.5537064202820337E-06   -1.8342030427060470E-05    1.0375931205501592E-06 \
              -4.9716890548341950E-06   -1.0731500550566787E-06    1.9118920411833581E-05    1.4163500675717387E-05   -9.7413038585742109E-06 \
               9.1545288854837437E-06    1.5426845182647889E-05    3.0185487030386791E-05    1.6964544523252272E-05    1.8226011147577241E-05 \
               5.2707192046391118E-06   -1.3268883938975212E-05   -1.0030487767478248E-05    2.7847404794205913E-05    1.0800644078324295E-05 \
              -9.1631893911675490E-06   -1.7921094894521430E-05   -1.5559101628878447E-05    2.9741290427926201E-06   -2.4898274407668193E-05 \
               1.2509422073780215E-05   -6.1062098758814051E-06   -6.5999839862290492E-06    2.6454429828538946E-05    8.3210062835139538E-06 \
               5.7274279995747606E-07   -3.9980349000410282E-06   -7.8998882347721478E-08   -2.1466993745963960E-05   -4.0128314706775542E-07 \
               2.5617389878954278E-06    2.9282149010213524E-06    2.2653824941317202E-06   -2.2823167004304440E-05   -7.2561328305422626E-06 \
              -1.5279116061915582E-05   -7.6000815492763921E-06   -7.8528948003597031E-06   -6.4900959362579084E-06   -5.4200698095528195E-06 \
               4.1486000861514792E-06   -8.8507258020651064E-06   -8.4925262441979583E-07   -2.3942395019019579E-05   -2.3822653156448218E-05 \
              -6.1638655735111441E-07   -3.7017125057636184E-06   -7.2297911841064873E-06   -1.3797017971475548E-05    9.1308916230001930E-06 \
               4.0788083636954180E-06   -2.9455878862453609E-05    7.1942764680113262E-06    2.1768158888486040E-05    3.9124919649562360E-07 \
              -2.2264898986673436E-05   -3.4174116076375566E-06   -5.0653640899113586E-06    9.5927561649276913E-06   -6.9310341226735624E-06 \
               5.1825844480861776E-06    8.6042346733418985E-06   -5.3079884347767904E-07   -2.6330738487181198E-07    1.6846036306340415E-05 \
              -1.4568101453097857E-05    1.7213502495595060E-05    7.9802129987226667E-06    3.0938963154379969E-05    1.5187124121948444E-05 \
               1.2162828180290154E-06    1.9499656459005690E-06    3.7006562630754696E-06   -2.2503616610597303E-05   -3.8681130803871952E-06 \
              -2.4416159363137136E-05   -1.1948835833940453E-05   -1.3519393676770996E-05   -2.6598983778416705E-06    1.8308063586061785E-05 \
              -2.7679568401478421E-06   -7.5162129746857867E-06    2.6470141465799045E-05   -6.5387953000371071E-06    2.0002511052474657E-05 \
               3.4605955438803179E-06   -1.5442477617117085E-06    2.0652442927833562E-05    4.8225774123972576E-06   -6.3975585067766670E-06 \
              -5.0405498849436654E-06
         &END VELOCITY
         &MASS
               1.0824866155047130E+06    1.0824866155047130E+06    1.0824866155047130E+06    1.0824866155047130E+06 \
               1.0824866155047130E+06    1.0824866155047130E+06    1.0824866155047130E+06    1.0824866155047130E+06    1.0824866155047130E+06 \
               1.0824866155047130E+06    1.0824866155047130E+06    1.0824866155047130E+06    1.0824866155047130E+06    1.0824866155047130E+06 \
               1.0824866155047130E+06    1.0824866155047130E+06    1.0824866155047130E+06    1.0824866155047130E+06    1.0824866155047130E+06 \
               1.0824866155047130E+06    1.0824866155047130E+06    1.0824866155047130E+06    1.0824866155047130E+06    1.0824866155047130E+06 \
               1.0824866155047130E+06    1.0824866155047130E+06    1.0824866155047130E+06    1.0824866155047130E+06    1.0824866155047130E+06 \
               1.0824866155047130E+06    1.0824866155047130E+06    1.0824866155047130E+06    1.0824866155047130E+06    1.0824866155047130E+06 \
               1.0824866155047130E+06    1.0824866155047130E+06    1.0824866155047130E+06    1.0824866155047130E+06    1.0824866155047130E+06 \
               1.0824866155047130E+06    1.0824866155047130E+06    1.0824866155047130E+06    1.0824866155047130E+06    1.0824866155047130E+06 \
               1.0824866155047130E+06    1.0824866155047130E+06    1.0824866155047130E+06    1.0824866155047130E+06    1.0824866155047130E+06 \
               1.0824866155047130E+06    1.0824866155047130E+06    1.0824866155047130E+06    1.0824866155047130E+06    1.0824866155047130E+06 \
               1.0824866155047130E+06    1.0824866155047130E+06    1.0824866155047130E+06    1.0824866155047130E+06    1.0824866155047130E+06 \
               1.0824866155047130E+06    1.0824866155047130E+06    1.0824866155047130E+06    1.0824866155047130E+06    1.0824866155047130E+06 \
               1.0824866155047130E+06    1.0824866155047130E+06    1.0824866155047130E+06    1.0824866155047130E+06    1.0824866155047130E+06 \
               1.0824866155047130E+06    1.0824866155047130E+06    1.0824866155047130E+06    1.0824866155047130E+06    1.0824866155047130E+06 \
               1.0824866155047130E+06    1.0824866155047130E+06    1.0824866155047130E+06    1.0824866155047130E+06    1.0824866155047130E+06 \
               1.0824866155047130E+06    1.0824866155047130E+06    1.0824866155047130E+06    1.0824866155047130E+06    1.0824866155047130E+06 \
               1.0824866155047130E+06    1.0824866155047130E+06    1.0824866155047130E+06    1.0824866155047130E+06    1.0824866155047130E+06 \
               1.0824866155047130E+06    1.0824866155047130E+06    1.0824866155047130E+06    1.0824866155047130E+06    1.0824866155047130E+06 \
               1.0824866155047130E+06    1.0824866155047130E+06    1.0824866155047130E+06    1.0824866155047130E+06    1.0824866155047130E+06 \
               1.0824866155047130E+06    1.0824866155047130E+06    1.0824866155047130E+06    1.0824866155047130E+06    1.0824866155047130E+06 \
               1.0824866155047130E+06    1.0824866155047130E+06    1.0824866155047130E+06    1.0824866155047130E+06    1.0824866155047130E+06 \
               1.0824866155047130E+06    1.0824866155047130E+06    1.0824866155047130E+06    1.0824866155047130E+06    1.0824866155047130E+06 \
               1.0824866155047130E+06    1.0824866155047130E+06    1.0824866155047130E+06    1.0824866155047130E+06    1.0824866155047130E+06 \
               1.0824866155047130E+06    1.0824866155047130E+06    1.0824866155047130E+06    1.0824866155047130E+06    1.0824866155047130E+06 \
               1.0824866155047130E+06    1.0824866155047130E+06    1.0824866155047130E+06    1.0824866155047130E+06    1.0824866155047130E+06 \
               1.0824866155047130E+06    1.0824866155047130E+06    1.0824866155047130E+06    1.0824866155047130E+06    1.0824866155047130E+06 \
               1.0824866155047130E+06    1.0824866155047130E+06    1.0824866155047130E+06    1.0824866155047130E+06    1.0824866155047130E+06 \
               1.0824866155047130E+06    1.0824866155047130E+06    1.0824866155047130E+06    1.0824866155047130E+06    1.0824866155047130E+06 \
               1.0824866155047130E+06    1.0824866155047130E+06    1.0824866155047130E+06    1.0824866155047130E+06    1.0824866155047130E+06 \
               1.0824866155047130E+06    1.0824866155047130E+06    1.0824866155047130E+06    1.0824866155047130E+06    1.0824866155047130E+06 \
               1.0824866155047130E+06    1.0824866155047130E+06    1.0824866155047130E+06    1.0824866155047130E+06    1.0824866155047130E+06 \
               1.0824866155047130E+06    1.0824866155047130E+06    1.0824866155047130E+06    1.0824866155047130E+06    1.0824866155047130E+06 \
               1.0824866155047130E+06    1.0824866155047130E+06    1.0824866155047130E+06    1.0824866155047130E+06    1.0824866155047130E+06 \
               1.0824866155047130E+06    1.0824866155047130E+06    1.0824866155047130E+06    1.0824866155047130E+06    1.0824866155047130E+06 \
               1.0824866155047130E+06    1.0824866155047130E+06    1.0824866155047130E+06    1.0824866155047130E+06    1.0824866155047130E+06 \
               1.0824866155047130E+06
         &END MASS
         &FORCE
              -4.2022987546713807E-10   -6.3079941759921964E-11   -4.0746132456254824E-10   -2.7728920429033767E-10 \
              -5.1593284792265953E-10   -5.5503234087583452E-10   -7.3119917306930768E-11   -5.5528636812001918E-10   -4.9898457905219588E-10 \
              -4.4890044920146223E-10    2.8285351769977551E-10   -1.5734629799117595E-10    4.7976044365910636E-11    1.6871421592071831E-10 \
              -4.7767950790819272E-10   -5.8486071446858098E-10   -4.9447941116574759E-10   -4.8928637519993571E-10   -5.6469670582115039E-10 \
              -5.8489243572131403E-10   -4.9328071753585892E-10   -5.5233950322785347E-10   -1.1951844737819712E-10   -3.1679644844545687E-10 \
              -4.6503953076583918E-10   -3.1706345534343776E-10   -3.7727413695233887E-10    6.2289472233235695E-12   -5.7840505954732622E-10 \
               3.1359041085677503E-10   -2.6877717923944985E-10   -5.5090014613046386E-10    1.8534032404010631E-11   -2.9473811414091026E-10 \
              -4.6362762417985631E-10   -5.6680192269313786E-10   -1.0511338659733545E-10   -5.8482526778046034E-10   -5.5012770451222147E-10 \
               3.7203571921623123E-11   -4.8501926611981497E-10   -5.7665834029465456E-10    5.1891307067367362E-10   -5.8257448792015395E-10 \
               1.2365690443818413E-10   -5.7122287519856481E-10    2.4499030751640855E-10   -4.9949879184359065E-10   -2.5375117730766112E-10 \
              -5.8426391709419474E-10   -1.5246523631381941E-10    3.3802627103582576E-10   -5.6554871969276089E-10   -5.4247591810272808E-10 \
              -1.8708505522351487E-10   -5.0951750362936065E-10   -5.8440316611913453E-10   -1.3960617462302228E-10   -4.9746266037544199E-10 \
              -4.0054965709229643E-10    1.6354787105912037E-10   -5.0573919976226313E-10   -5.8357750112133617E-10    2.8629150530203640E-10 \
              -3.2219198706591600E-10   -5.8451040336762909E-10   -2.2223375073245812E-10   -1.1253596844050199E-10   -5.8432970619114237E-10 \
               7.2954855309825025E-10    1.0378705874953143E-09   -5.7458380090200103E-10   -4.3109997549062965E-10   -3.5287889000653079E-10 \
              -4.3677630843113086E-10   -5.3119473487487487E-10   -1.0460122771192100E-10   -3.5637581109667669E-10   -5.7975632990731137E-10 \
              -5.2197284173994427E-10   -1.1283141989089478E-10   -1.3910542832600891E-11   -5.5630948723932474E-10   -5.8326437125930632E-10 \
              -5.0806908891789738E-10   -1.8217632322780104E-12   -5.7690677797681926E-10    2.7782559188718434E-09   -2.4867005831383858E-10 \
              -5.8402353901723764E-10   -2.4033803508538738E-10   -5.8394848746038257E-10   -2.1956702078702392E-10   -9.2431631960444801E-11 \
              -4.9020713763597787E-10   -5.0129473938589434E-10    2.1220950376242944E-09    3.2606348876059863E-10   -2.9730436761964197E-10 \
              -5.8144434172461885E-10   -5.5731965756689903E-10   -4.0903685751505632E-10   -1.4887684783356446E-10    1.9037781527131186E-10 \
              -4.6844622599440904E-10   -3.7918646225024338E-10   -2.6393449628260858E-10   -3.4301449500328272E-10   -3.6485012950388865E-10 \
               3.4823929978494244E-11   -4.2861449788107095E-10    1.0648097269419689E-09   -5.4154034988257073E-10    1.1473671905204050E-10 \
              -3.9632420862795916E-10   -5.8477210418614755E-10   -5.6911585543910452E-10   -3.4281991174436967E-10   -1.2426831801179485E-10 \
              -5.8493911033693012E-10    6.8159084859246015E-10   -5.7652569599448712E-10   -5.7996818065633222E-10   -1.2741645471892244E-10 \
              -5.3244867484657738E-10   -3.5164875086756397E-10   -1.9640216371307268E-10   -5.2343218175553422E-10   -5.4297879323921923E-10 \
              -4.1482014459259617E-10   -5.6788925582623461E-10   -5.0676479127770965E-10   -3.9693112518231499E-10   -1.1861859254277135E-11 \
              -1.7581335088618464E-11   -2.4123143477699768E-10   -5.7139746302572387E-10   -5.3283025793526685E-10    1.2240023000183779E-09 \
              -5.0172695667007555E-10   -5.6846346083329898E-10   -4.5855344788340792E-10   -5.3334252460286916E-10   -1.1124739710667688E-10 \
              -4.1780305561318151E-11   -8.9374411614278803E-11   -5.7342143640503467E-10    5.1261096577384619E-10   -4.9307916766129244E-10 \
              -5.3706090449138536E-10    1.2174857002006996E-09   -5.1106728418711160E-10   -5.8481839108881341E-10   -3.8462611614753842E-10 \
              -3.0131119926651123E-10   -3.7287055855329879E-10   -5.6930610165716678E-10   -5.2141633899606844E-10    3.7211930256703063E-10 \
               7.3863871513825094E-10   -5.8362079460761811E-10   -5.8129777248085832E-10   -5.0210308231880762E-10   -7.8687377944299868E-11 \
              -5.7013783969838808E-10   -5.5499364307596969E-10   -4.4232546071459125E-10   -4.0232613311353509E-10    3.2241295244568577E-10 \
              -2.4991494622976913E-10   -5.7743855343212940E-10   -5.6607042772167518E-10    1.1556825071836335E-10   -5.4234429452526328E-10 \
               1.9771316215359093E-09   -5.7312441698272629E-10   -5.8271543735149898E-10   -3.5047883086505124E-10   -5.6184288560248633E-10 \
              -5.4417138365342023E-10
         &END FORCE
       &END NOSE
     &END THERMOSTAT
     &AVERAGES  T
       &RESTART_AVERAGES
         ITIMES_START  1
         AVECPU     9.1179514884948730E+01
         AVEHUGONIOT     0.0000000000000000E+00
         AVETEMP_BARO     0.0000000000000000E+00
         AVEPOT    -2.9914407801448652E+02
         AVEKIN     1.8959081278995465E-02
         AVETEMP     1.9955990718126966E+02
         AVEKIN_QM     0.0000000000000000E+00
         AVETEMP_QM     0.0000000000000000E+00
         AVEVOL     8.9820333300927869E+03
         AVECELL_A     2.0786987461742072E+01
         AVECELL_B     2.0786987461742072E+01
         AVECELL_C     2.0786987461742072E+01
         AVEALPHA     9.0000000000000000E+01
         AVEBETA     9.0000000000000000E+01
         AVEGAMMA     9.0000000000000000E+01
         AVE_ECONS     0.0000000000000000E+00
         AVE_PRESS     1.9081813684276782E+04
         AVE_PXX     2.4791722396520014E+04
       &END RESTART_AVERAGES
     &END AVERAGES
     &PRINT
       &ENERGY  SILENT
         &EACH
         &END EACH
       &END ENERGY
       &PROGRAM_RUN_INFO  SILENT
         &EACH
         &END EACH
       &END PROGRAM_RUN_INFO
     &END PRINT
   &END MD
   &CONSTRAINT
     &FIXED_ATOMS
     &END FIXED_ATOMS
   &END CONSTRAINT
   &PRINT
     &VELOCITIES  OFF
       &EACH
       &END EACH
     &END VELOCITIES
     &FORCES  OFF
       &EACH
       &END EACH
     &END FORCES
     &STRESS  OFF
       &EACH
       &END EACH
     &END STRESS
     &RESTART  ON
       BACKUP_COPIES  3
       &EACH
         MD  1
       &END EACH
     &END RESTART
     &RESTART_HISTORY  ON
       &EACH
         MD  500
       &END EACH
     &END RESTART_HISTORY
   &END PRINT
 &END MOTION
 &FORCE_EVAL
   METHOD  QS
   STRESS_TENSOR  ANALYTICAL
   &DFT
     BASIS_SET_FILE_NAME /home/siepmann/singh891/cp2k-6.1.0/data/BASIS_MOLOPT
     POTENTIAL_FILE_NAME /home/siepmann/singh891/cp2k-6.1.0/data/GTH_POTENTIALS
     MULTIPLICITY  1
     CHARGE  0
     &SCF
       MAX_SCF  2
       EPS_SCF     9.9999999999999995E-07
       SCF_GUESS  ATOMIC
       &OT  T
         MINIMIZER  DIIS
         PRECONDITIONER  FULL_SINGLE_INVERSE
       &END OT
       &OUTER_SCF  T
         EPS_SCF     9.9999999999999995E-07
         MAX_SCF  10
       &END OUTER_SCF
       &PRINT
         DM_RESTART_WRITE  T
         &RESTART  OFF
         &END RESTART
       &END PRINT
     &END SCF
     &QS
       EPS_DEFAULT     1.0000000000000000E-08
       EXTRAPOLATION  ASPC
       METHOD  GPW
     &END QS
     &MGRID
       NGRIDS  4
       CUTOFF     4.0000000000000000E+02
       REL_CUTOFF     5.0000000000000000E+01
     &END MGRID
     &XC
       DENSITY_CUTOFF     1.0000000000000000E-10
       GRADIENT_CUTOFF     1.0000000000000000E-10
       TAU_CUTOFF     1.0000000000000000E-10
       &XC_FUNCTIONAL  NO_SHORTCUT
         &PBE  T
         &END PBE
       &END XC_FUNCTIONAL
       &VDW_POTENTIAL
         POTENTIAL_TYPE  PAIR_POTENTIAL
         &PAIR_POTENTIAL
           R_CUTOFF     1.1000000000000000E+01
           TYPE  DFTD3
           PARAMETER_FILE_NAME dftd3.dat
           REFERENCE_FUNCTIONAL PBE
         &END PAIR_POTENTIAL
       &END VDW_POTENTIAL
     &END XC
     &POISSON
       PERIODIC  XYZ
       &EWALD
       &END EWALD
     &END POISSON
     &PRINT
       &E_DENSITY_CUBE  OFF
       &END E_DENSITY_CUBE
     &END PRINT
   &END DFT
   &SUBSYS
     &CELL
       A     1.1000000000000000E+01    0.0000000000000000E+00    0.0000000000000000E+00
       B     0.0000000000000000E+00    1.1000000000000000E+01    0.0000000000000000E+00
       C     0.0000000000000000E+00    0.0000000000000000E+00    1.1000000000000000E+01
       MULTIPLE_UNIT_CELL  1 1 1
     &END CELL
     &COORD
Cl    5.8697799430452413E+00    2.3753210169342949E+00    6.5254176856561550E+00
Cl    7.5832107605064811E+00    1.5555559634174971E+00    5.8740157795785102E+00
Cl    2.7899207901269394E+00    7.0181044670670047E+00   -1.1963134471211529E-03
Cl    3.2664349641928889E+00    8.9666823744098227E+00    1.9304721979157613E-02
Cl    7.3416037641709408E+00    3.3674361720140840E+00    7.8383908849275592E+00
Cl    8.9850589011532112E+00    3.4326714014672084E+00    8.9895390122551042E+00
Cl    1.1076628874368182E+00    3.9903670119109744E+00    2.7904964057897410E+00
Cl    9.7753044594183480E-01    4.1573394186064760E+00    7.9565178996353714E-01
Cl    8.9972220526973583E+00    8.9981314229804017E+00    4.3990414609501416E+00
Cl    8.9944289589308291E+00    8.9981570975190568E+00    6.4049617069619940E+00
Cl    2.2373232440195006E+00    1.8824156111404688E+00    3.0859277276843629E+00
Cl    1.2309655623884754E+00    8.5962852029327241E-01    4.4887420626027748E+00
Cl    8.8426527030455260E-01    8.9042726227941724E+00    8.0022461990683986E+00
Cl    2.8707210448903608E+00    8.8546373308134498E+00    7.7226181046218496E+00
Cl    8.0976400031621782E+00    4.9297672871031271E+00    1.1617584053158114E+00
Cl    6.1936649833060251E+00    4.6792390336391136E+00    1.7468005894074388E+00
Cl    2.8915825116319263E+00    5.2984004792111818E+00    3.6597556426634585E+00
Cl    4.8727440127954882E+00    5.5010679018404280E+00    3.4043429208806115E+00
Cl    4.9781619792852743E+00    1.4898799399834281E-02    8.5345889797950725E-01
Cl    6.9110779367318775E+00    1.6906177046386840E-02    3.1472617075080356E-01
     &END COORD
     &VELOCITY
          -5.2550383164228641E-05    7.1803686661340557E-05    9.2604334150528681E-05
           4.7763130097152449E-05   -1.0297521541372018E-04    2.0025740867635514E-06
          -1.8486570071693934E-05    2.3425069007161971E-05   -4.4844066741833434E-05
           9.9522056629557286E-05   -7.2789725067577360E-05    6.9738825562411797E-05
          -8.9664255513824861E-05    1.0209533929821296E-04   -1.3598526639417200E-04
           1.5246025289785219E-05   -7.4498499963111063E-05    1.2434699929459738E-04
          -8.1649679968503016E-05    8.6382473100061094E-05    1.1198079816808727E-04
           1.2081237361633165E-04    7.7961124071227245E-05    1.4839168910845592E-04
           5.0788491273946758E-05    3.0048366844842041E-05    9.4608502551810160E-06
           9.7812614048830532E-05    3.5920107625614429E-05   -2.3735104298102123E-04
           7.5991406434474886E-05    9.0841045135760817E-05    2.1294355753652104E-04
          -7.8252053711599386E-06   -8.5478943617871595E-05   -5.8728284875087804E-05
           6.0738307925429323E-05   -1.6623973245019971E-04    5.6231287916784887E-05
          -6.3703560622074219E-05    1.4565991821794997E-04   -8.7556307274172862E-05
          -8.0688354802871067E-05   -5.3405567526363301E-05   -5.6140823062654410E-05
          -7.5892882354187637E-05   -1.7407495880957368E-04   -4.6039449033774496E-05
          -9.5396513099682757E-05   -1.3559658448509615E-04    1.7376115672618024E-04
          -5.7947375849368507E-05    1.6264896160199575E-05   -1.4890383382768564E-04
           3.7285164706019812E-05   -2.2456125334826752E-05   -1.2329094200225099E-04
           1.7853395072095857E-05    2.0716382765912953E-04   -6.2688582105346273E-05
     &END VELOCITY
     &KIND Cl
       BASIS_SET DZVP-MOLOPT-SR-GTH
       POTENTIAL GTH-PBE
       &POTENTIAL
 2 5
  0.4100000000000000E+00 1 -0.6392081810000000E+01
 2
  0.3395386400000000E+00 2  0.1521898983000000E+02 -0.4934523210000000E+01
  0.6370442080000000E+01
  0.3784741600000000E+00 1  0.4338775270000000E+01
         # Potential name:  GTH-PBE  for symbol:  CL
         # Potential read from the potential filename: /home/siepmann/singh891/cp2k-6.1.0/data/GTH_POTENTIALS
       &END POTENTIAL
     &END KIND
     &TOPOLOGY
       NUMBER_OF_ATOMS  20
       MULTIPLE_UNIT_CELL  1 1 1
     &END TOPOLOGY
   &END SUBSYS
 &END FORCE_EVAL
