 # Version information for this restart file 
 # current date 2020-06-17 20:21:46.249
 # current working dir /panfs/roc/scratch/singh891/dlt/cp2kmd
 # Program compiled at                              Tue May 28 11:01:45 CDT 2019
 # Program compiled on                                                    ln0003
 # Program compiled for                                       Linux-x86-64-intel
 # Source code revision number                                       git:7cd08c2
 &GLOBAL
   PRINT_LEVEL  LOW
   PROJECT_NAME chlorine
   RUN_TYPE  MD
 &END GLOBAL
 &MOTION
   &GEO_OPT
     OPTIMIZER  BFGS
     MAX_ITER  100
     MAX_DR     3.0000000000000001E-03
     MAX_FORCE     3.0000000000000001E-03
   &END GEO_OPT
   &MD
     ENSEMBLE  NVT
     STEPS  2
     TIMESTEP     9.9999999999999989E-01
     STEP_START_VAL  1
     TIME_START_VAL     9.9999999999999989E-01
     ECONS_START_VAL    -2.9859780888258592E+02
     TEMPERATURE     2.0000000000000003E+02
     &THERMOSTAT
       TYPE  NOSE
       REGION  MASSIVE
       &NOSE
         LENGTH  3
         YOSHIDA  3
         TIMECON     9.9999999999999989E+02
         MTS  2
         &COORD
               9.4463812582327696E-04   -5.5105745565642446E-04   -1.3481500452183415E-04    3.4372426866955151E-04 \
              -2.2697394467873660E-04   -2.5912353258162425E-04   -2.2579198678404516E-04   -3.8399153663078839E-04   -5.6610876835772202E-04 \
               1.2181091048709648E-03   -8.5476718447862962E-04    4.6287197673548769E-04    1.1352843364080382E-03   -4.2836613103949692E-04 \
               1.9806459159122622E-04    3.9330219930000775E-04   -4.0481750906855784E-04    8.5693138409198826E-04    1.8557807532229862E-05 \
              -3.9637797653495972E-04    5.4739029957627625E-04   -8.9250701003937651E-04   -6.7731810384778237E-04   -4.2454732323707166E-04 \
              -6.7695310539019071E-04    5.9591658632777013E-04   -5.3016625022403983E-04   -1.0691981143984698E-04    1.2391760581327458E-03 \
              -3.6044150256720836E-04   -2.4186463913884764E-04    1.0155462669882739E-03   -3.7370775381806486E-04    4.5551191347472270E-04 \
              -1.7703976137672660E-04    7.8250453179308423E-04    2.1620653906962313E-05    2.4423332515623408E-04   -6.9134493900120013E-04 \
              -4.1355479240829372E-04   -1.2034414399466959E-04    5.8063286879305256E-04   -6.5404357395838170E-05    1.1002926754421862E-03 \
               5.7438089877688870E-05    1.1906867071018311E-03    3.8259550938328241E-04    2.1186454718453908E-04   -3.7946579097982755E-05 \
              -8.6001321534865597E-04    7.0484315397657371E-04   -1.8255895246814617E-04    2.6959551533108810E-04    2.5778455423334850E-04 \
               3.5939268794845720E-04    3.4253500216565786E-05   -9.4496272023521179E-05   -3.8702852497263099E-04    5.6131017776108469E-04 \
               3.2462167779428433E-04    3.6842902009677801E-04   -5.1252872726465141E-05    1.2798749298178712E-03   -6.7017017901458125E-04 \
               3.1584680184679747E-05   -2.2765675478224600E-04    8.9858650605404225E-04    3.6232727928489507E-05   -3.1291007128530959E-04 \
              -1.6652528156896424E-03   -1.3352867842174044E-04    1.2403386920082417E-04   -6.3011949276361014E-04    5.0336198936445323E-04 \
              -3.5387305296996348E-04    9.0577265426414178E-04    6.2502498686507790E-04    8.1583705664064826E-04    3.2826607246072678E-04 \
              -8.9860171456580416E-04    3.1945636378986431E-04    2.2181634014640194E-04    5.5727640971427048E-05    4.4752301371272421E-05 \
              -9.9873821712549824E-04   -1.1832249365450759E-04    3.9466754397091320E-04   -7.5704386911024969E-04    4.2770085729927665E-05 \
              -2.0583590442001888E-04   -4.4448939997100386E-05    7.8996427630941631E-04    5.8542578995078164E-04   -4.0272937105332446E-04 \
               3.7813712223015727E-04    6.3750986512988675E-04    1.2486931610261875E-03    7.0134681295718306E-04    7.5333589727181668E-04 \
               2.1763804251058742E-04   -5.4890799059705898E-04   -4.1488375386639325E-04    1.1510278322475302E-03    4.4666171106021049E-04 \
              -3.7905898302980327E-04   -7.4123139759996529E-04   -6.4334611234774085E-04    1.2277874579713844E-04   -1.0293894709425184E-03 \
               5.1721377361614942E-04   -2.5265884978677394E-04   -2.7222371126788718E-04    1.0932718487739995E-03    3.4406040982431493E-04 \
               2.3478743786136009E-05   -1.6558426413580414E-04   -3.5576979392043828E-06   -8.8768939430041382E-04   -1.6652682942637856E-05 \
               1.0560589106036815E-04    1.2139587987614492E-04    9.3384888404402316E-05   -9.4383845106002907E-04   -3.0009188768275293E-04 \
              -6.3199222753468017E-04   -3.1437798912926153E-04   -3.2481498714065696E-04   -2.6859591020832679E-04   -2.2435148807990887E-04 \
               1.7130605004756158E-04   -3.6619623933306666E-04   -3.5369042293477476E-05   -9.9029993186765990E-04   -9.8487452812375626E-04 \
              -2.5491273677680131E-05   -1.5314362605082499E-04   -2.9923368552349787E-04   -5.7066081093129592E-04    3.7815816610765971E-04 \
               1.6842797573812416E-04   -1.2180379738815543E-03    2.9712087692133367E-04    8.9964771760880176E-04    1.6117594473429808E-05 \
              -9.2053251920923241E-04   -1.4133517001913037E-04   -2.0970311540841763E-04    3.9683736863684949E-04   -2.8677281114944419E-04 \
               2.1397982862486772E-04    3.5636108192355808E-04   -2.2205939629875286E-05   -1.1185341091006590E-05    6.9636618373198201E-04 \
              -6.0229129193596317E-04    7.1143865918643038E-04    3.2949987428684276E-04    1.2785509020004809E-03    6.2804699043883451E-04 \
               5.0606121416235433E-05    8.0311347155932701E-05    1.5269214768518546E-04   -9.3064295783887308E-04   -1.6000175062165690E-04 \
              -1.0096898798190421E-03   -4.9435072667156738E-04   -5.5915547020211453E-04   -1.1017005845739898E-04    7.5705302356793747E-04 \
              -1.1456988567700189E-04   -3.1102662913622939E-04    1.0941213177216060E-03   -2.7019663586331095E-04    8.2665317970609408E-04 \
               1.4408174933741623E-04   -6.4118683386985318E-05    8.5350158636758036E-04    1.9921594209342702E-04   -2.6478852220962332E-04 \
              -2.0866222251285501E-04
         &END COORD
         &VELOCITY
               2.2858259961689413E-05   -1.3331642338956810E-05   -3.2694403870592644E-06    8.3101420595404753E-06 \
              -5.5016154117448605E-06   -6.2793690055003378E-06   -5.4658452276383385E-06   -9.3024197664440740E-06   -1.3703825566957098E-05 \
               2.9472665672969707E-05   -2.0665191818084365E-05    1.1193076756065255E-05    2.7473371880945969E-05   -1.0357158353951118E-05 \
               4.7810775922043059E-06    9.5037163042060628E-06   -9.7980964106596665E-06    2.0718067330877839E-05    4.3764949314267308E-07 \
              -9.5973907159816054E-06    1.3230545212064762E-05   -2.1607919149834069E-05   -1.6389475128243391E-05   -1.0275853306463450E-05 \
              -1.6379594886462394E-05    1.4411803613187723E-05   -1.2831908365515047E-05   -2.5839242722267883E-06    2.9967679460372836E-05 \
              -8.7121884629479155E-06   -5.8553109432564003E-06    2.4558092455935006E-05   -9.0391816153079495E-06    1.1012994039861006E-05 \
              -4.2902965957312866E-06    1.8916164595682529E-05    5.2026881012360779E-07    5.8976742781749245E-06   -1.6734208179180457E-05 \
              -9.9999958867161804E-06   -2.9201660906494507E-06    1.4032918565036246E-05   -1.5729074786947585E-06    2.6601999458154481E-05 \
               1.3919038744604061E-06    2.8785486702213670E-05    9.2586087334670438E-06    5.1144347962867835E-06   -9.2398235296892830E-07 \
              -2.0807470368674077E-05    1.7046192826105549E-05   -4.4035360998001861E-06    6.5086721927056131E-06    6.2242936754100274E-06 \
               8.6973919801157192E-06    8.1805942593126364E-07   -2.2978358633817616E-06   -9.3609320754002248E-06    1.3564958795672632E-05 \
               7.8439367065094051E-06    8.9180338043218041E-06   -1.2494044273590938E-06    3.0946631590578812E-05   -1.6204514251068482E-05 \
               7.5741978939314435E-07   -5.5188359849218620E-06    2.1731636097205934E-05    8.7423483235512816E-07   -7.5810112407598259E-06 \
              -4.0274318652132181E-05   -3.2082651247316903E-06    2.9883560823274492E-06   -1.5246953115974226E-05    1.2170607798883750E-05 \
              -8.5688106941269855E-06    2.1891783312223811E-05    1.5110288931116834E-05    1.9726783295586203E-05    7.9324302429560044E-06 \
              -2.1743456146589747E-05    7.7249537493980220E-06    5.3650478190902321E-06    1.3364578317586835E-06    1.0704493288051304E-06 \
              -2.4170270574662797E-05   -2.8615462628560724E-06    9.5346262446836454E-06   -1.8268212456269535E-05    1.0294901482012253E-06 \
              -4.9910047998054634E-06   -1.0764963137875313E-06    1.9090660646803524E-05    1.4156221051611358E-05   -9.7450345799631646E-06 \
               9.1336534752305016E-06    1.5410259495704028E-05    3.0236059661996707E-05    1.6965155602364036E-05    1.8216178703785717E-05 \
               5.2539488041038058E-06   -1.3291727725912165E-05   -1.0044005854651562E-05    2.7833672594264998E-05    1.0810204639724308E-05 \
              -9.1786789422974542E-06   -1.7944039188748942E-05   -1.5566289565838389E-05    2.9627881918564315E-06   -2.4903224066941334E-05 \
               1.2513106517381645E-05   -6.1203839620143461E-06   -6.5596580769120529E-06    2.6429232087798294E-05    8.3247789451092356E-06 \
               5.5996672538950591E-07   -4.0173870867836527E-06   -9.7818744237715067E-08   -2.1481961890680144E-05   -4.0534932145608599E-07 \
               2.5423932931794661E-06    2.9498966253604793E-06    2.2480212794010253E-06   -2.2842349646510549E-05   -7.2629991716178743E-06 \
              -1.5300570191860716E-05   -7.6117008173481824E-06   -7.8656997747586910E-06   -6.5085717220445128E-06   -5.4380238312162543E-06 \
               4.1353126445308598E-06   -8.8697607647831003E-06   -8.6600733088201706E-07   -2.3973314361611977E-05   -2.3823506358942503E-05 \
              -6.1696734801633875E-07   -3.7082934890946023E-06   -7.2519943918082777E-06   -1.3814635005200439E-05    9.1767510508683494E-06 \
               4.0661964629686806E-06   -2.9474681410574361E-05    7.1755467112331220E-06    2.1750234743771388E-05    3.8755700028880915E-07 \
              -2.2269848654497865E-05   -3.4209380321734377E-06   -5.0843285148587360E-06    9.6069715527858346E-06   -6.9461491419963197E-06 \
               5.1648256474134813E-06    8.6481746285542309E-06   -5.4769436997582036E-07   -2.8264884139888119E-07    1.6841145674763766E-05 \
              -1.4569778152640572E-05    1.7201171317859808E-05    7.9538226354291095E-06    3.0906173038160181E-05    1.5199397721505991E-05 \
               1.2340239545134739E-06    1.9304275019470539E-06    3.6814296886028733E-06   -2.2524043607928408E-05   -3.8738276246411941E-06 \
              -2.4435014856238976E-05   -1.1972838671332612E-05   -1.3535206318060733E-05   -2.6731974758323144E-06    1.8318280346815938E-05 \
              -2.7769055721383323E-06   -7.5353098367223567E-06    2.6458195157356035E-05   -6.5306628264146341E-06    1.9984572287043679E-05 \
               3.5262037345313925E-06   -1.5621348163167824E-06    2.0633171639977673E-05    4.8128098930879772E-06   -6.4172120622290310E-06 \
              -5.0585431564709565E-06
         &END VELOCITY
         &MASS
               1.0824866155047130E+06    1.0824866155047130E+06    1.0824866155047130E+06    1.0824866155047130E+06 \
               1.0824866155047130E+06    1.0824866155047130E+06    1.0824866155047130E+06    1.0824866155047130E+06    1.0824866155047130E+06 \
               1.0824866155047130E+06    1.0824866155047130E+06    1.0824866155047130E+06    1.0824866155047130E+06    1.0824866155047130E+06 \
               1.0824866155047130E+06    1.0824866155047130E+06    1.0824866155047130E+06    1.0824866155047130E+06    1.0824866155047130E+06 \
               1.0824866155047130E+06    1.0824866155047130E+06    1.0824866155047130E+06    1.0824866155047130E+06    1.0824866155047130E+06 \
               1.0824866155047130E+06    1.0824866155047130E+06    1.0824866155047130E+06    1.0824866155047130E+06    1.0824866155047130E+06 \
               1.0824866155047130E+06    1.0824866155047130E+06    1.0824866155047130E+06    1.0824866155047130E+06    1.0824866155047130E+06 \
               1.0824866155047130E+06    1.0824866155047130E+06    1.0824866155047130E+06    1.0824866155047130E+06    1.0824866155047130E+06 \
               1.0824866155047130E+06    1.0824866155047130E+06    1.0824866155047130E+06    1.0824866155047130E+06    1.0824866155047130E+06 \
               1.0824866155047130E+06    1.0824866155047130E+06    1.0824866155047130E+06    1.0824866155047130E+06    1.0824866155047130E+06 \
               1.0824866155047130E+06    1.0824866155047130E+06    1.0824866155047130E+06    1.0824866155047130E+06    1.0824866155047130E+06 \
               1.0824866155047130E+06    1.0824866155047130E+06    1.0824866155047130E+06    1.0824866155047130E+06    1.0824866155047130E+06 \
               1.0824866155047130E+06    1.0824866155047130E+06    1.0824866155047130E+06    1.0824866155047130E+06    1.0824866155047130E+06 \
               1.0824866155047130E+06    1.0824866155047130E+06    1.0824866155047130E+06    1.0824866155047130E+06    1.0824866155047130E+06 \
               1.0824866155047130E+06    1.0824866155047130E+06    1.0824866155047130E+06    1.0824866155047130E+06    1.0824866155047130E+06 \
               1.0824866155047130E+06    1.0824866155047130E+06    1.0824866155047130E+06    1.0824866155047130E+06    1.0824866155047130E+06 \
               1.0824866155047130E+06    1.0824866155047130E+06    1.0824866155047130E+06    1.0824866155047130E+06    1.0824866155047130E+06 \
               1.0824866155047130E+06    1.0824866155047130E+06    1.0824866155047130E+06    1.0824866155047130E+06    1.0824866155047130E+06 \
               1.0824866155047130E+06    1.0824866155047130E+06    1.0824866155047130E+06    1.0824866155047130E+06    1.0824866155047130E+06 \
               1.0824866155047130E+06    1.0824866155047130E+06    1.0824866155047130E+06    1.0824866155047130E+06    1.0824866155047130E+06 \
               1.0824866155047130E+06    1.0824866155047130E+06    1.0824866155047130E+06    1.0824866155047130E+06    1.0824866155047130E+06 \
               1.0824866155047130E+06    1.0824866155047130E+06    1.0824866155047130E+06    1.0824866155047130E+06    1.0824866155047130E+06 \
               1.0824866155047130E+06    1.0824866155047130E+06    1.0824866155047130E+06    1.0824866155047130E+06    1.0824866155047130E+06 \
               1.0824866155047130E+06    1.0824866155047130E+06    1.0824866155047130E+06    1.0824866155047130E+06    1.0824866155047130E+06 \
               1.0824866155047130E+06    1.0824866155047130E+06    1.0824866155047130E+06    1.0824866155047130E+06    1.0824866155047130E+06 \
               1.0824866155047130E+06    1.0824866155047130E+06    1.0824866155047130E+06    1.0824866155047130E+06    1.0824866155047130E+06 \
               1.0824866155047130E+06    1.0824866155047130E+06    1.0824866155047130E+06    1.0824866155047130E+06    1.0824866155047130E+06 \
               1.0824866155047130E+06    1.0824866155047130E+06    1.0824866155047130E+06    1.0824866155047130E+06    1.0824866155047130E+06 \
               1.0824866155047130E+06    1.0824866155047130E+06    1.0824866155047130E+06    1.0824866155047130E+06    1.0824866155047130E+06 \
               1.0824866155047130E+06    1.0824866155047130E+06    1.0824866155047130E+06    1.0824866155047130E+06    1.0824866155047130E+06 \
               1.0824866155047130E+06    1.0824866155047130E+06    1.0824866155047130E+06    1.0824866155047130E+06    1.0824866155047130E+06 \
               1.0824866155047130E+06    1.0824866155047130E+06    1.0824866155047130E+06    1.0824866155047130E+06    1.0824866155047130E+06 \
               1.0824866155047130E+06    1.0824866155047130E+06    1.0824866155047130E+06    1.0824866155047130E+06    1.0824866155047130E+06 \
               1.0824866155047130E+06    1.0824866155047130E+06    1.0824866155047130E+06    1.0824866155047130E+06    1.0824866155047130E+06 \
               1.0824866155047130E+06    1.0824866155047130E+06    1.0824866155047130E+06    1.0824866155047130E+06    1.0824866155047130E+06 \
               1.0824866155047130E+06    1.0824866155047130E+06    1.0824866155047130E+06    1.0824866155047130E+06    1.0824866155047130E+06 \
               1.0824866155047130E+06
         &END MASS
         &FORCE
               2.9490438483069818E-10   -6.2600090024877427E-11   -4.0736745104718488E-10   -2.4539955605116213E-10 \
              -5.1604167745130707E-10   -5.5483236636230218E-10   -2.0060249715213475E-10   -5.5522467444855385E-10   -4.9856512498992128E-10 \
              -1.4717325534710767E-10    2.8353788336959628E-10   -1.5804998562282965E-10    4.0045595578192644E-10    1.6968602400770195E-10 \
              -4.7782940933223131E-10   -5.6241032145709375E-10   -4.9477951491021847E-10   -4.8909744522846882E-10   -5.4207859683753479E-10 \
              -5.8490860142220261E-10   -4.9299022994584072E-10   -5.8388588157394530E-10   -1.1819796851528478E-10   -3.1648524352174193E-10 \
              -4.7471790103927421E-10   -3.1680900985642564E-10   -3.7740005511595996E-10    4.6543931816025064E-11   -5.7842347385644785E-10 \
               3.1296167373860136E-10   -4.1604386074104415E-10   -5.5081547225883250E-10    1.7999766573201206E-11   -3.0687548604383362E-10 \
              -4.6381410077903657E-10   -5.6669349362170719E-10   -1.4246182007430758E-10   -5.8482945886626316E-10   -5.5031757660960452E-10 \
               2.6605579515962316E-10   -4.8510022076671015E-10   -5.7657276850407182E-10    3.2550125329471177E-10   -5.8262610056451673E-10 \
               1.2256623667060069E-10   -4.7456293672632636E-10    2.4350410618226937E-10   -4.9937830282161850E-10   -2.8686616714524990E-10 \
              -5.8424639511245261E-10   -1.5214931535780097E-10    6.5739238450679296E-10   -5.6570900831880725E-10   -5.4273732478895139E-10 \
               3.6480974688612173E-10   -5.0945551124526941E-10   -5.8443091727669569E-10   -5.1513200813988217E-11   -4.9747308918079388E-10 \
              -4.0109203137275436E-10    3.1492330730594445E-10   -5.0556881156602425E-10   -5.8353912707794611E-10    2.7967250762516652E-10 \
              -3.2251385638796912E-10   -5.8452645376368621E-10   -1.6496026143329280E-10   -1.1283613103966665E-10   -5.8433585195894763E-10 \
               3.2493424129473401E-10    1.0369206043924316E-09   -5.7480717339048099E-10   -4.3198144397076570E-10   -3.5263055918033449E-10 \
              -4.3697644430680074E-10   -5.3023517718153908E-10   -1.0584996191168975E-10   -3.5677930691921871E-10   -5.4941181560142440E-10 \
              -5.2217668894168764E-10   -1.1232225330237923E-10   -1.5431640582587886E-11   -5.5631640039992579E-10   -5.8331401896498152E-10 \
              -5.0909478984746995E-10   -8.9815884864042973E-13   -5.7691169148658512E-10    1.8750393010490511E-09   -2.5137255215364927E-10 \
              -5.8404028853580732E-10   -2.0349250583948748E-11   -5.8394129418745255E-10   -2.2064681456963792E-10   -3.4409322271222883E-10 \
              -4.9013443953637289E-10   -5.0167651269546050E-10    2.0300194160607330E-09    3.2911916538277385E-10   -2.9728363388862685E-10 \
              -5.7432709944850972E-10   -5.5749616046490688E-10   -4.0843011256126848E-10   -8.4950413299989884E-11    1.8961319158368776E-10 \
              -4.6823961414833367E-10   -4.3828188768095299E-10   -2.6311159609369289E-10   -3.4279076765352159E-10   -5.1808281937416082E-10 \
               3.5070430427235404E-11   -4.2852230378571170E-10    1.0335248975088886E-09   -5.4207102441505312E-10    1.1340417024965633E-10 \
              -3.8434447760367849E-10   -5.8478657576750713E-10   -5.6896073949599457E-10   -5.0555379788789724E-10   -1.2362545182841666E-10 \
              -5.8493583042864570E-10    6.5048870202612576E-10   -5.7639824840073754E-10   -5.8004653882841082E-10   -7.3532087995939752E-11 \
              -5.3234898153412870E-10   -3.5099269030499393E-10   -4.4421964664651998E-10   -5.2323090555441177E-10   -5.4273863264005325E-10 \
              -4.5045156616915887E-10   -5.6799932783303383E-10   -5.0642748247656502E-10   -3.3486177138366688E-10   -1.0380337020379635E-11 \
              -1.7540683266476795E-11   -1.4157935876969430E-10   -5.7134869789978925E-10   -5.3250871584223191E-10    1.5494808724760579E-09 \
              -5.0088737865143724E-10   -5.6856618482559165E-10   -3.7635595812796483E-10   -5.3361166789596217E-10   -1.1202742709189071E-10 \
              -9.3159245953436396E-11   -8.9153979406810256E-11   -5.7339732148107998E-10    2.3664272481095476E-10   -4.9280623608501432E-10 \
              -5.3685115059819450E-10    1.4217277331594660E-09   -5.1030921409508156E-10   -5.8480016937814745E-10   -4.0451071415775417E-10 \
              -3.0147595086243637E-10   -3.7282170308388813E-10   -5.3866937482502159E-10   -5.2183684398518622E-10    3.7009139336364864E-10 \
               3.8110508480264165E-10   -5.8357732338073754E-10   -5.8137358816077714E-10   -5.4555113979020100E-10   -7.7767598049190133E-11 \
              -5.7009359803561743E-10   -5.7228331141561133E-10   -4.4175127265129297E-10   -4.0189832842857949E-10    2.1087177475270243E-10 \
              -2.4954074363650759E-10   -5.7738893394447765E-10   -5.1490305555967662E-10    1.1493595248368759E-10   -5.4245058154873669E-10 \
               1.9813711948085120E-09   -5.7266602572362755E-10   -5.8265987331670161E-10   -3.1044023177094314E-10   -5.6193699943404509E-10 \
              -5.4391952784943287E-10
         &END FORCE
       &END NOSE
     &END THERMOSTAT
     &AVERAGES  T
       &RESTART_AVERAGES
         ITIMES_START  1
         AVECPU     2.9892099142074585E+01
         AVEHUGONIOT     0.0000000000000000E+00
         AVETEMP_BARO     0.0000000000000000E+00
         AVEPOT    -2.9905242024672867E+02
         AVEKIN     1.9184513273389138E-02
         AVETEMP     2.0193276413646032E+02
         AVEKIN_QM     0.0000000000000000E+00
         AVETEMP_QM     0.0000000000000000E+00
         AVEVOL     8.9820333300927869E+03
         AVECELL_A     2.0786987461742072E+01
         AVECELL_B     2.0786987461742072E+01
         AVECELL_C     2.0786987461742072E+01
         AVEALPHA     9.0000000000000000E+01
         AVEBETA     9.0000000000000000E+01
         AVEGAMMA     9.0000000000000000E+01
         AVE_ECONS     0.0000000000000000E+00
         AVE_PRESS     2.3574555210543560E+04
         AVE_PXX     3.2492425199505156E+04
       &END RESTART_AVERAGES
     &END AVERAGES
     &PRINT
       &ENERGY  SILENT
         &EACH
         &END EACH
       &END ENERGY
       &PROGRAM_RUN_INFO  SILENT
         &EACH
         &END EACH
       &END PROGRAM_RUN_INFO
     &END PRINT
   &END MD
   &CONSTRAINT
     &FIXED_ATOMS
     &END FIXED_ATOMS
   &END CONSTRAINT
   &PRINT
     &VELOCITIES  OFF
       &EACH
       &END EACH
     &END VELOCITIES
     &FORCES  OFF
       &EACH
       &END EACH
     &END FORCES
     &STRESS  OFF
       &EACH
       &END EACH
     &END STRESS
     &RESTART  ON
       BACKUP_COPIES  3
       &EACH
         MD  1
       &END EACH
     &END RESTART
     &RESTART_HISTORY  ON
       &EACH
         MD  500
       &END EACH
     &END RESTART_HISTORY
   &END PRINT
 &END MOTION
 &FORCE_EVAL
   METHOD  QS
   STRESS_TENSOR  ANALYTICAL
   &DFT
     BASIS_SET_FILE_NAME /home/siepmann/singh891/cp2k-6.1.0/data/BASIS_MOLOPT
     POTENTIAL_FILE_NAME /home/siepmann/singh891/cp2k-6.1.0/data/GTH_POTENTIALS
     MULTIPLICITY  1
     CHARGE  0
     &SCF
       MAX_SCF  2
       EPS_SCF     9.9999999999999995E-07
       SCF_GUESS  ATOMIC
       &OT  T
         MINIMIZER  DIIS
         PRECONDITIONER  FULL_SINGLE_INVERSE
       &END OT
       &OUTER_SCF  T
         EPS_SCF     9.9999999999999995E-07
         MAX_SCF  2
       &END OUTER_SCF
       &PRINT
         DM_RESTART_WRITE  T
         &RESTART  OFF
         &END RESTART
       &END PRINT
     &END SCF
     &QS
       EPS_DEFAULT     1.0000000000000000E-08
       EXTRAPOLATION  ASPC
       METHOD  GPW
     &END QS
     &MGRID
       NGRIDS  4
       CUTOFF     4.0000000000000000E+02
       REL_CUTOFF     5.0000000000000000E+01
     &END MGRID
     &XC
       DENSITY_CUTOFF     1.0000000000000000E-10
       GRADIENT_CUTOFF     1.0000000000000000E-10
       TAU_CUTOFF     1.0000000000000000E-10
       &XC_FUNCTIONAL  NO_SHORTCUT
         &PBE  T
         &END PBE
       &END XC_FUNCTIONAL
       &VDW_POTENTIAL
         POTENTIAL_TYPE  PAIR_POTENTIAL
         &PAIR_POTENTIAL
           R_CUTOFF     1.1000000000000000E+01
           TYPE  DFTD3
           PARAMETER_FILE_NAME dftd3.dat
           REFERENCE_FUNCTIONAL PBE
         &END PAIR_POTENTIAL
       &END VDW_POTENTIAL
     &END XC
     &POISSON
       PERIODIC  XYZ
       &EWALD
       &END EWALD
     &END POISSON
     &PRINT
       &E_DENSITY_CUBE  OFF
       &END E_DENSITY_CUBE
     &END PRINT
   &END DFT
   &SUBSYS
     &CELL
       A     1.1000000000000000E+01    0.0000000000000000E+00    0.0000000000000000E+00
       B     0.0000000000000000E+00    1.1000000000000000E+01    0.0000000000000000E+00
       C     0.0000000000000000E+00    0.0000000000000000E+00    1.1000000000000000E+01
       MULTIPLE_UNIT_CELL  1 1 1
     &END CELL
     &COORD
Cl    5.8676376848920411E+00    2.3770419025047449E+00    6.5274208674220882E+00
Cl    7.5849240979872592E+00    1.5529791100983172E+00    5.8738073267703594E+00
Cl    2.7893916620299346E+00    7.0181124017328438E+00   -2.1452131426239526E-03
Cl    3.2686673224832075E+00    8.9654910403576018E+00    2.0794238484233441E-02
Cl    7.3395792554340886E+00    3.3698193248365773E+00    7.8353966682847327E+00
Cl    8.9857862047060166E+00    3.4310580670653947E+00    8.9925382810717860E+00
Cl    1.1054579216449103E+00    3.9921752406544013E+00    2.7932077514448275E+00
Cl    9.8018364625513066E-01    4.1591480564325076E+00    7.9849440112037295E-01
Cl    8.9983307829258816E+00    8.9987915005288119E+00    4.3986410449409536E+00
Cl    8.9965763641389387E+00    8.9989379273523298E+00    6.4003842182343966E+00
Cl    2.2392009078025787E+00    1.8842582436794706E+00    3.0904508416272192E+00
Cl    1.2306853362165144E+00    8.5766067363945087E-01    4.4876299946450890E+00
Cl    8.8510926433600223E-01    8.9006637613565847E+00    8.0035157379547464E+00
Cl    2.8698025163955583E+00    8.8577915425117286E+00    7.7206327350765820E+00
Cl    8.0963839606548369E+00    4.9287192397233106E+00    1.1604225229836000E+00
Cl    6.1916878579011669E+00    4.6751901080432967E+00    1.7456462211404855E+00
Cl    2.8895702120909590E+00    5.2956730089693718E+00    3.6636687758914985E+00
Cl    4.8715147108022956E+00    5.5015519882402932E+00    3.4013421985110983E+00
Cl    4.9787326772700391E+00    1.4505707294494253E-02    8.5088338360718707E-01
Cl    6.9117780496529706E+00    2.1434008350939893E-02    3.1326425476827063E-01
     &END COORD
     &VELOCITY
          -1.2140796336191135E-04    7.5431521419506926E-05    8.0251204884015408E-05
           8.5645692381227178E-05   -1.2848291920518137E-04   -1.9494864393871198E-05
          -2.6844029421585637E-05   -4.5098283921367713E-06   -4.2998600252770636E-05
           1.0285867683768491E-04   -5.3213322116622228E-05    6.8265696542255865E-05
          -8.6105169350121020E-05    1.1940136374252061E-04   -1.2350054566525137E-04
           4.3028772279200376E-05   -7.0677841458098933E-05    1.4426188863289388E-04
          -1.2613799549997557E-04    9.4538197207352589E-05    1.2278113199667431E-04
           1.2035266003764409E-04    8.3888354103403521E-05    1.2346208910435079E-04
           5.0642930714391977E-05    3.0314629186856155E-05   -2.4449376670539963E-05
           9.7682288029533307E-05    3.5680160504527086E-05   -2.0299464588912378E-04
           9.7259757584084927E-05    6.3535942118204367E-05    2.0929097232958753E-04
          -1.3433025484073897E-05   -9.1528161485914168E-05   -4.9590072632081648E-05
           3.3504122432301232E-05   -1.6465610899505515E-04    5.7988065626700737E-05
          -3.6501845649455892E-05    1.4386054796132358E-04   -9.2567050994177302E-05
          -4.8576939697235800E-05   -4.7490374904977784E-05   -6.4741337948027780E-05
          -8.6190957953595775E-05   -1.8908672609520695E-04   -5.9130548808409360E-05
          -9.0773939529038641E-05   -1.1732017228499917E-04    1.8334107928161857E-04
          -5.4998504235195757E-05    2.7887374893373228E-05   -1.2721531922307974E-04
           2.5737861995373962E-05   -1.4651935027713817E-05   -1.1546585966068817E-04
           3.4289744902897330E-05    2.0733514768347120E-04   -6.7826960506300660E-05
     &END VELOCITY
     &KIND Cl
       BASIS_SET DZVP-MOLOPT-SR-GTH
       POTENTIAL GTH-PBE
       &POTENTIAL
 2 5
  0.4100000000000000E+00 1 -0.6392081810000000E+01
 2
  0.3395386400000000E+00 2  0.1521898983000000E+02 -0.4934523210000000E+01
  0.6370442080000000E+01
  0.3784741600000000E+00 1  0.4338775270000000E+01
         # Potential name:  GTH-PBE  for symbol:  CL
         # Potential read from the potential filename: /home/siepmann/singh891/cp2k-6.1.0/data/GTH_POTENTIALS
       &END POTENTIAL
     &END KIND
     &TOPOLOGY
       NUMBER_OF_ATOMS  20
       MULTIPLE_UNIT_CELL  1 1 1
     &END TOPOLOGY
   &END SUBSYS
 &END FORCE_EVAL
