 # Version information for this restart file 
 # current date 2020-06-17 20:18:08.931
 # current working dir /panfs/roc/scratch/singh891/dlt/cp2kmd
 # Program compiled at                              Tue May 28 11:01:45 CDT 2019
 # Program compiled on                                                    ln0003
 # Program compiled for                                       Linux-x86-64-intel
 # Source code revision number                                       git:7cd08c2
 &GLOBAL
   PRINT_LEVEL  LOW
   PROJECT_NAME molecule_opt
   RUN_TYPE  GEO_OPT
 &END GLOBAL
 &MOTION
   &GEO_OPT
     TYPE  MINIMIZATION
     OPTIMIZER  BFGS
     MAX_ITER  2
     MAX_DR     1.0000000000000000E-03
     MAX_FORCE     1.0000000000000000E-03
     STEP_START_VAL  1
   &END GEO_OPT
   &MD
     &THERMOSTAT
     &END THERMOSTAT
     &AVERAGES  T
     &END AVERAGES
     &PRINT
       &ENERGY  SILENT
         &EACH
         &END EACH
       &END ENERGY
       &PROGRAM_RUN_INFO  SILENT
         &EACH
         &END EACH
       &END PROGRAM_RUN_INFO
     &END PRINT
   &END MD
   &CONSTRAINT
     &FIXED_ATOMS
       LIST  1
     &END FIXED_ATOMS
   &END CONSTRAINT
   &PRINT
   &END PRINT
 &END MOTION
 &FORCE_EVAL
   METHOD  QS
   &DFT
     BASIS_SET_FILE_NAME /home/siepmann/singh891/cp2k-6.1.0/data/BASIS_MOLOPT
     POTENTIAL_FILE_NAME /home/siepmann/singh891/cp2k-6.1.0/data/GTH_POTENTIALS
     &SCF
       MAX_SCF  200
       EPS_SCF     9.9999999999999995E-07
       SCF_GUESS  ATOMIC
     &END SCF
     &QS
       EPS_DEFAULT     1.0000000000000000E-10
     &END QS
     &MGRID
       NGRIDS  5
       CUTOFF     4.0000000000000000E+02
       REL_CUTOFF     5.0000000000000000E+01
     &END MGRID
     &XC
       DENSITY_CUTOFF     1.0000000000000000E-10
       GRADIENT_CUTOFF     1.0000000000000000E-10
       TAU_CUTOFF     1.0000000000000000E-10
       &XC_FUNCTIONAL  NO_SHORTCUT
         &PBE  T
         &END PBE
       &END XC_FUNCTIONAL
       &VDW_POTENTIAL
         POTENTIAL_TYPE  PAIR_POTENTIAL
         &PAIR_POTENTIAL
           R_CUTOFF     1.1000000000000000E+01
           TYPE  DFTD3
           PARAMETER_FILE_NAME dftd3.dat
           REFERENCE_FUNCTIONAL PBE
         &END PAIR_POTENTIAL
       &END VDW_POTENTIAL
     &END XC
     &POISSON
       &EWALD
       &END EWALD
     &END POISSON
     &PRINT
     &END PRINT
   &END DFT
   &SUBSYS
     &CELL
       A     2.2000000000000000E+01    0.0000000000000000E+00    0.0000000000000000E+00
       B     0.0000000000000000E+00    2.2000000000000000E+01    0.0000000000000000E+00
       C     0.0000000000000000E+00    0.0000000000000000E+00    2.2000000000000000E+01
       MULTIPLE_UNIT_CELL  1 1 1
     &END CELL
     &COORD
Cl    2.0000000000000000E+00    0.0000000000000000E+00    0.0000000000000000E+00
Cl   -4.9596732592632736E-03    7.0232231237031281E-11    7.0248660789692042E-11
     &END COORD
     &KIND Cl
       BASIS_SET DZVP-MOLOPT-SR-GTH
       POTENTIAL GTH-PBE
       &POTENTIAL
 2 5
  0.4100000000000000E+00 1 -0.6392081810000000E+01
 2
  0.3395386400000000E+00 2  0.1521898983000000E+02 -0.4934523210000000E+01
  0.6370442080000000E+01
  0.3784741600000000E+00 1  0.4338775270000000E+01
         # Potential name:  GTH-PBE  for symbol:  CL
         # Potential read from the potential filename: /home/siepmann/singh891/cp2k-6.1.0/data/GTH_POTENTIALS
       &END POTENTIAL
     &END KIND
     &TOPOLOGY
       NUMBER_OF_ATOMS  2
       MULTIPLE_UNIT_CELL  1 1 1
     &END TOPOLOGY
   &END SUBSYS
 &END FORCE_EVAL
